21
Frame 0: Reactant (Aa91156)
C    0.56013900    1.46487400   -0.54122300
C    0.09534000    0.10768400   -0.01882800
C    0.43052700   -1.09244300   -0.95628400
C    1.38243000   -1.66242200    0.13001000
C    2.83791000   -1.29940700   -0.02333600
C    3.23493800   -0.39077100    0.87240400
C    2.12030700    0.02376500    1.81336200
O    2.06481200    1.42002500    2.09377900
C    0.86699200   -0.60572400    1.15465000
H    1.62846700    1.45948100   -0.78839600
H    0.02240000    1.70592600   -1.46638000
H    0.35830700    2.26878100    0.17511700
H   -0.97391400    0.17776900    0.20713700
H   -0.42845300   -1.73778000   -1.16393700
H    0.90398100   -0.82677300   -1.90841200
H    1.24432900   -2.72241600    0.37463300
H    3.47146500   -1.74672300   -0.78565200
H    4.23925700    0.01258700    0.97055700
H    2.27630500   -0.42748100    2.80248700
H    2.09732300    1.88409200    1.24514100
H    0.16971000   -0.98600100    1.90464700
21
Frame 1: MECI Candidate (Target)
C   -1.10048708    1.73203635   -0.87331119
C   -1.32670466    0.26246165   -0.55645847
C   -0.77894157   -0.75357783   -1.57508393
C   -0.12903333   -1.57530166   -0.44582266
C    1.35508791   -1.58506730   -0.30881288
C    1.70123214   -0.20123595   -0.03639050
C    0.81518739    0.15129771    1.12445851
O    0.78071224    1.46953248    1.55468145
C   -0.55568784   -0.44304876    0.58360155
H   -0.07071798    1.92652053   -1.16736523
H   -1.73713520    2.01853560   -1.70888174
H   -1.36190372    2.35470442   -0.02021585
H   -2.39872796    0.11675113   -0.39699947
H   -1.53517180   -1.29047895   -2.14274053
H   -0.05557724   -0.33300910   -2.27012753
H   -0.57831957   -2.55571094   -0.29794923
H    1.72884910   -2.31833885    0.39917786
H    1.69757745    0.49953252   -0.86336811
H    1.07751763   -0.43745113    2.01215316
H    0.70704002    2.05106288    0.78960081
H   -1.19310613   -0.72788351    1.42208674
