22
Properties=species:S:1:pos:R:3 pbc="F F F"
N       -3.56758904      -2.05058289      -0.73740399
C       -2.34054208      -2.53172708      -0.58942699
O       -1.86602104      -3.61411905      -0.57671303
C       -1.02628195      -0.26245001      -0.27675700
O       -2.10619593       0.18446100      -0.40260801
C        0.29154301      -0.43748599      -0.11409500
C        1.04894102      -1.66935694      -0.07211500
C        2.41070294      -1.60432696       0.11671000
C        3.09311509      -0.39462200       0.26740199
C        2.37051201       0.81445003       0.22943500
C        1.01210904       0.83881098       0.04378900
N        0.24036600       2.01310205      -0.00683900
C        0.63648403       3.31545210       0.10729500
O        1.76433504       3.71918607       0.27782500
H       -4.35625792      -2.67842603      -0.88224602
H       -3.72674704      -1.05325103      -0.70322597
H        0.53815901      -2.61054206      -0.18844500
H        2.97384191      -2.53018093       0.15146200
H        4.16641712      -0.37341201       0.41177401
H        2.88071394       1.75862002       0.33847299
H       -0.75203001       1.90598094      -0.14586700
H       -0.23915900       3.99085808       0.02216200
22
Properties=species:S:1:pos:R:3 pbc="F F F"
N       -3.50396719      -1.61312093      -0.56246590
C       -2.32993620      -2.10605983      -0.42235769
O       -1.57299671      -2.96692976      -0.35779860
C       -1.31916462      -0.40899960      -0.19928292
O       -2.24303175       0.43161930      -0.28627516
C        0.06167521      -0.43624505      -0.01166522
C        0.90795374      -1.58281148       0.04960149
C        2.24966659      -1.50382121       0.23708454
C        2.87350833      -0.25886571       0.38206578
C        2.09017904       0.91009547       0.33090109
C        0.74698102       0.87511768       0.14541545
N       -0.07482653       1.99378215       0.08654608
C        0.32161032       3.30904724       0.20573961
O        1.46163895       3.67339926       0.38047031
H       -4.32229566      -2.21038658      -0.70859793
H       -3.58603980      -0.57774836      -0.52370124
H        0.41620450      -2.60261750      -0.06667953
H        2.86522847      -2.43084047       0.27691983
H        3.96412595      -0.17926173       0.53491409
H        2.61626107       1.90029150       0.45026292
H       -1.07282110       1.75245286      -0.06236628
H       -0.54995364       4.03190274       0.12126927
