22
Properties=species:S:1:pos:R:3 pbc="F F F"
N       -3.31466389      -1.72099197      -0.68003100
C       -2.17347908      -2.32269692      -0.54970801
O       -1.36991000      -3.09130907      -0.47419000
C       -1.12990606      -0.51453203      -0.31654501
O       -2.02090406       0.28068799      -0.40145200
C        0.20170400      -0.58171898      -0.13779999
C        1.04905105      -1.76290500      -0.07809800
C        2.39802790      -1.65780497       0.11162100
C        3.02438688      -0.40953499       0.25709501
C        2.23096704       0.77431703       0.20522700
C        0.88823301       0.71917301       0.01885400
N        0.05663900       1.82859898      -0.04185300
C        0.44925699       3.11017108       0.07521600
O        1.58674598       3.48381495       0.25008401
H       -4.17260504      -2.21169901      -0.82682902
H       -3.29565501      -0.69879103      -0.62774903
H        0.55721098      -2.72326207      -0.19159700
H        3.00456691      -2.55651498       0.15152600
H        4.09223509      -0.33324701       0.40663499
H        2.71774197       1.73722601       0.31787100
H       -0.92578202       1.58708000      -0.18861000
H       -0.40744501       3.79437900      -0.00908300
22
Properties=species:S:1:pos:R:3 pbc="F F F"
N       -3.50396719      -1.61312093      -0.56246590
C       -2.32993620      -2.10605983      -0.42235769
O       -1.57299671      -2.96692976      -0.35779860
C       -1.31916462      -0.40899960      -0.19928292
O       -2.24303175       0.43161930      -0.28627516
C        0.06167521      -0.43624505      -0.01166522
C        0.90795374      -1.58281148       0.04960149
C        2.24966659      -1.50382121       0.23708454
C        2.87350833      -0.25886571       0.38206578
C        2.09017904       0.91009547       0.33090109
C        0.74698102       0.87511768       0.14541545
N       -0.07482653       1.99378215       0.08654608
C        0.32161032       3.30904724       0.20573961
O        1.46163895       3.67339926       0.38047031
H       -4.32229566      -2.21038658      -0.70859793
H       -3.58603980      -0.57774836      -0.52370124
H        0.41620450      -2.60261750      -0.06667953
H        2.86522847      -2.43084047       0.27691983
H        3.96412595      -0.17926173       0.53491409
H        2.61626107       1.90029150       0.45026292
H       -1.07282110       1.75245286      -0.06236628
H       -0.54995364       4.03190274       0.12126927
