22
Properties=species:S:1:pos:R:3 pbc="F F F"
N       -3.52391358      -1.62340538      -0.56576620
C       -2.32774192      -2.09119024      -0.42136507
O       -1.62667002      -3.01293398      -0.36753523
C       -1.34472575      -0.43260311      -0.20417685
O       -2.23976453       0.45944389      -0.28434614
C        0.06881287      -0.42609731      -0.01024193
C        0.91661816      -1.57062866       0.05134948
C        2.24368230      -1.49725657       0.23657961
C        2.86191333      -0.25150319       0.38083370
C        2.10390304       0.91611814       0.33307303
C        0.76395444       0.87972838       0.14796675
N       -0.06288503       2.00006734       0.08849808
C        0.32458075       3.33118417       0.20721876
O        1.47433827       3.71906245       0.38443279
H       -4.29167281      -2.29831095      -0.70824596
H       -3.67762283      -0.64546368      -0.53971183
H        0.42931106      -2.58685886      -0.06404556
H        2.87222083      -2.43473445       0.27769983
H        3.97425890      -0.17798329       0.53636568
H        2.63734242       1.90835479       0.45359471
H       -1.04369097       1.77269751      -0.05735536
H       -0.53224892       4.06231299       0.12517771
22
Properties=species:S:1:pos:R:3 pbc="F F F"
N       -3.52575892      -1.62484448      -0.56608971
C       -2.32690201      -2.08572369      -0.42098536
O       -1.62165641      -3.00484262      -0.36642766
C       -1.34362346      -0.43173145      -0.20397173
O       -2.24942075       0.45719338      -0.28580164
C        0.06980144      -0.42835796      -0.01021538
C        0.91611564      -1.57065805       0.05128009
C        2.24769630      -1.49793303       0.23709522
C        2.86673103      -0.25184149       0.38147208
C        2.10122389       0.91527995       0.33266674
C        0.76120039       0.87913219       0.14755877
N       -0.06255385       2.00063166       0.08857282
C        0.32982633       3.33297666       0.20802485
O        1.47457924       3.71374511       0.38421429
H       -4.29403449      -2.29380546      -0.70836822
H       -3.67400569      -0.64265796      -0.53907079
H        0.42635183      -2.59750559      -0.06496568
H        2.87212933      -2.43487138       0.27768088
H        3.97404321      -0.17798673       0.53633666
H        2.63845254       1.90869567       0.45375551
H       -1.04728123       1.77267368      -0.05785416
H       -0.53291436       4.06243160       0.12509241
22
Properties=species:S:1:pos:R:3 pbc="F F F"
N       -3.52603276      -1.62511844      -0.56613889
C       -2.32698837      -2.08325031      -0.42087737
O       -1.61736692      -3.00067877      -0.36561850
C       -1.34260444      -0.43077697      -0.20377254
O       -2.25340210       0.45397613      -0.28652364
C        0.06990856      -0.42963809      -0.01026040
C        0.91552183      -1.57101980       0.05118276
C        2.24961153      -1.49870116       0.23732016
C        2.86944927      -0.25250345       0.38181016
C        2.10022007       0.91474975       0.33250462
C        0.75937677       0.87868302       0.14728711
N       -0.06257624       2.00064003       0.08857187
C        0.33147945       3.33420183       0.20831185
O        1.47418188       3.71006586       0.38398465
H       -4.29617649      -2.28887253      -0.70844390
H       -3.66927135      -0.63848571      -0.53821273
H        0.42549695      -2.60126318      -0.06526891
H        2.87173473      -2.43509487       0.27761665
H        3.97383452      -0.17833251       0.53629255
H        2.63783184       1.90789256       0.45362854
H       -1.05022440       1.77192975      -0.05829661
H       -0.53400432       4.06159687       0.12490258
22
Properties=species:S:1:pos:R:3 pbc="F F F"
N       -3.52574302      -1.62501160      -0.56609172
C       -2.32733490      -2.08247750      -0.42088690
O       -1.61355169      -2.99776468      -0.36493986
C       -1.34138309      -0.42960630      -0.20353378
O       -2.25509557       0.45102937      -0.28691496
C        0.06963605      -0.43059121      -0.01034091
C        0.91491270      -1.57149188       0.05107816
C        2.25068914      -1.49939054       0.23743437
C        2.87113887      -0.25313939       0.38200986
C        2.09947554       0.91428269       0.33238091
C        0.75809865       0.87834503       0.14709600
N       -0.06280468       2.00047774       0.08853388
C        0.33185472       3.33468721       0.20838789
O        1.47368762       3.70703441       0.38377156
H       -4.29818678      -2.28389622      -0.70850100
H       -3.66435009      -0.63405809      -0.53731703
H        0.42503002      -2.60285725      -0.06541536
H        2.87130487      -2.43522966       0.27755165
H        3.97351497      -0.17859656       0.53623686
H        2.63688437       1.90708811       0.45345737
H       -1.05264099       1.77092435      -0.05867850
H       -0.53513673       4.06024199       0.12468150
22
Properties=species:S:1:pos:R:3 pbc="F F F"
N       -3.52502980      -1.62471058      -0.56597634
C       -2.32776604      -2.08262788      -0.42095240
O       -1.61003764      -2.99539567      -0.36433186
C       -1.34003243      -0.42832482      -0.20327149
O       -2.25570334       0.44848318      -0.28713469
C        0.06922928      -0.43134436      -0.01042992
C        0.91432235      -1.57202189       0.05097336
C        2.25132575      -1.49998888       0.23749269
C        2.87225077      -0.25371075       0.38213425
C        2.09879393       0.91384767       0.33226715
C        0.75714574       0.87805754       0.14695199
N       -0.06322497       2.00019717       0.08846334
C        0.33163889       3.33454035       0.20835208
O        1.47318941       3.70435431       0.38357401
H       -4.30012147      -2.27890138      -0.70854784
H       -3.65944176      -0.62964747      -0.53642365
H        0.42464565      -2.60357055      -0.06550811
H        2.87087038      -2.43524410       0.27749153
H        3.97310086      -0.17876608       0.53617250
H        2.63580066       1.90634062       0.45327034
H       -1.05468259       1.76982047      -0.05901336
H       -0.53627364       4.05861310       0.12444640
22
Properties=species:S:1:pos:R:3 pbc="F F F"
N       -3.52403034      -1.62425590      -0.56581382
C       -2.32828967      -2.08330226      -0.42105554
O       -1.60670943      -2.99328852      -0.36376387
C       -1.33859732      -0.42698195      -0.20299451
O       -2.25574239       0.44628224      -0.28725718
C        0.06877954      -0.43195408      -0.01051790
C        0.91375781      -1.57259443       0.05087005
C        2.25169225      -1.50050091       0.23751830
C        2.87300444      -0.25422232       0.38221291
C        2.09813686       0.91343730       0.33215774
C        0.75634819       0.87779565       0.14683048
N       -0.06379796       1.99982961       0.08836717
C        0.33115897       3.33381846       0.20825194
O        1.47270816       3.70187065       0.38338767
H       -4.30199005      -2.27391604      -0.70858667
H       -3.65452078      -0.62528519      -0.53553041
H        0.42426540      -2.60387811      -0.06558061
H        2.87044307      -2.43515311       0.27743723
H        3.97262140      -0.17886508       0.53610239
H        2.63463807       1.90565123       0.45307522
H       -1.05647050       1.76867257      -0.05931545
H       -0.53740573       4.05684019       0.12420489
22
Properties=species:S:1:pos:R:3 pbc="F F F"
N       -3.52283897      -1.62368151      -0.56561892
C       -2.32883278      -2.08438558      -0.42118067
O       -1.60350687      -2.99131085      -0.36322065
C       -1.33710893      -0.42560417      -0.20270855
O       -2.25545217       0.44435145      -0.28731953
C        0.06831822      -0.43246370      -0.01060273
C        0.91321777      -1.57320143       0.05076840
C        2.25188141      -1.50093703       0.23752336
C        2.87352022      -0.25468435       0.38226165
C        2.09749332       0.91305076       0.33205114
C        0.75560436       0.87755110       0.14671707
N       -0.06448608       1.99940169       0.08825188
C        0.33053162       3.33269469       0.20811186
O        1.47224470       3.69951226       0.38320937
H       -4.30379892      -2.26893894      -0.70861804
H       -3.64955862      -0.62097708      -0.53463364
H        0.42385930      -2.60398641      -0.06564684
H        2.87002562      -2.43497872       0.27738809
H        3.97209366      -0.17891501       0.53602785
H        2.63341923       1.90501701       0.45287493
H       -1.05809688       1.76749205      -0.05959697
H       -0.53852919       4.05499376       0.12396093
22
Properties=species:S:1:pos:R:3 pbc="F F F"
N       -3.52152006      -1.62301325      -0.56540178
C       -2.32929276      -2.08579266      -0.42130978
O       -1.60040052      -2.98939155      -0.36269437
C       -1.33559181      -0.42421002      -0.20241794
O       -2.25494809       0.44262853      -0.28734105
C        0.06785145      -0.43290468      -0.01068509
C        0.91269689      -1.57383762       0.05066794
C        2.25194521      -1.50130977       0.23751436
C        2.87386633      -0.25510738       0.38228919
C        2.09685676       0.91268806       0.33194649
C        0.75486238       0.87732142       0.14660454
N       -0.06526031       1.99893598       0.08812262
C        0.32981344       3.33128191       0.20794513
O        1.47179264       3.69724172       0.38303656
H       -4.30555841      -2.26395959      -0.70864266
H       -3.64455387      -0.61673431      -0.53373366
H        0.42341543      -2.60399022      -0.06571297
H        2.86961392      -2.43473946       0.27734271
H        3.97152584      -0.17893337       0.53594920
H        2.63215359       1.90443384       0.45267061
H       -1.05962316       1.76628051      -0.05986633
H       -0.53964491       4.05311191       0.12371628
22
Properties=species:S:1:pos:R:3 pbc="F F F"
N       -3.52011272      -1.62227329      -0.56516888
C       -2.32964470      -2.08739335      -0.42143341
O       -1.59737016      -2.98748517      -0.36217987
C       -1.33405995      -0.42281478      -0.20212542
O       -2.25428742       0.44106571      -0.28733220
C        0.06738042      -0.43330175      -0.01076601
C        0.91219144      -1.57450357       0.05056815
C        2.25191599      -1.50163367       0.23749503
C        2.87408666      -0.25550353       0.38230091
C        2.09622490       0.91234572       0.33184333
C        0.75410022       0.87710351       0.14648972
N       -0.06609550       1.99844729       0.08798363
C        0.32903737       3.32965024       0.20775971
O        1.47134785       3.69502988       0.38286732
H       -4.30727556      -2.25897300      -0.70866112
H       -3.63951557      -0.61257379      -0.53283255
H        0.42293180      -2.60393849      -0.06578165
H        2.86920559      -2.43445508       0.27729987
H        3.97092565      -0.17893675       0.53586672
H        2.63084902       1.90389396       0.45246299
H       -1.06108151       1.76503941      -0.06012788
H       -0.54075382       4.05121050       0.12347158
22
Properties=species:S:1:pos:R:3 pbc="F F F"
N       -3.51864160      -1.62147878      -0.56492445
C       -2.32990995      -2.08910961      -0.42155076
O       -1.59440627      -2.98555018      -0.36167371
C       -1.33252094      -0.42142501      -0.20183238
O       -2.25350431       0.43963599      -0.28729920
C        0.06690397      -0.43367100      -0.01084639
C        0.91169851      -1.57520055       0.05046856
C        2.25181609      -1.50192038       0.23746785
C        2.87421121      -0.25588138       0.38230046
C        2.09559694       0.91202156       0.33174147
C        0.75331229       0.87689767       0.14637188
N       -0.06697113       1.99794668       0.08783833
C        0.32822549       3.32784773       0.20756097
O        1.47090870       3.69285043       0.38270019
H       -4.30895135      -2.25398415      -0.70867367
H       -3.63444680      -0.60850724      -0.53193133
H        0.42240943      -2.60385691      -0.06585398
H        2.86879957      -2.43414170       0.27725866
H        3.97030067      -0.17893657       0.53578092
H        2.62951278       1.90339167       0.45225281
H       -1.06248716       1.76377400      -0.06038345
H       -0.54185615       4.04929775       0.12322723
22
Properties=species:S:1:pos:R:3 pbc="F F F"
N       -3.51712260      -1.62064215      -0.56467128
C       -2.33010606      -2.09090283      -0.42166238
O       -1.59152116      -2.98354599      -0.36117559
C       -1.33098147      -0.42004230      -0.20153987
O       -2.25262125       0.43832614      -0.28724592
C        0.06641914      -0.43402206      -0.01092711
C        0.91121583      -1.57592814       0.05036889
C        2.25166183      -1.50217824       0.23743465
C        2.87426112      -0.25624565       0.38229046
C        2.09497237       0.91171552       0.33164087
C        0.75250204       0.87670829       0.14625170
N       -0.06787105       1.99744263       0.08768937
C        0.32739431       3.32591027       0.20735294
O        1.47047062       3.69065902       0.38253228
H       -4.31058440      -2.24900298      -0.70868051
H       -3.62934434      -0.60454072      -0.53102987
H        0.42184977      -2.60375834      -0.06593039
H        2.86839524      -2.43381074       0.27721848
H        3.96965746      -0.17893916       0.53569241
H        2.62815048       1.90292423       0.45204074
H       -1.06384734       1.76249195      -0.06063367
H       -0.54295054       4.04738126       0.12298378
22
Properties=species:S:1:pos:R:3 pbc="F F F"
N       -3.51556161      -1.61976680      -0.56441033
C       -2.33023900      -2.09274258      -0.42176758
O       -1.58875135      -2.98143939      -0.36068885
C       -1.32944345      -0.41866064      -0.20124788
O       -2.25164822       0.43713449      -0.28717390
C        0.06592562      -0.43435618      -0.01100824
C        0.91074645      -1.57667967       0.05026992
C        2.25147039      -1.50240802       0.23739774
C        2.87425630      -0.25659314       0.38227382
C        2.09435510       0.91143452       0.33154242
C        0.75168835       0.87654902       0.14613247
N       -0.06877788       1.99694696       0.08753979
C        0.32656358       3.32387396       0.20714014
O        1.46994054       3.68828690       0.38234218
H       -4.31216961      -2.24403445      -0.70868108
H       -3.62419641      -0.60067315      -0.53012652
H        0.42125849      -2.60364339      -0.06601012
H        2.86799665      -2.43346331       0.27717987
H        3.96900569      -0.17894189       0.53560268
H        2.62676994       1.90249653       0.45182814
H       -1.06515926       1.76120801      -0.06087740
H       -0.54403031       4.04547222       0.12274273
22
Properties=species:S:1:pos:R:3 pbc="F F F"
N       -3.51394519      -1.61886671      -0.56414050
C       -2.33029511      -2.09461794      -0.42186401
O       -1.58613043      -2.97925319      -0.36021919
C       -1.32789161      -0.41728448      -0.20095463
O       -2.25057424       0.43604943      -0.28708236
C        0.06543474      -0.43468702      -0.01108893
C        0.91031146      -1.57746156       0.05017417
C        2.25127263      -1.50262260       0.23736071
C        2.87422949      -0.25693230       0.38225455
C        2.09376513       0.91117293       0.33144858
C        0.75092981       0.87641721       0.14602204
N       -0.06966111       1.99645759       0.08739364
C        0.32577410       3.32176579       0.20692945
O        1.46885987       3.68587241       0.38207459
H       -4.31368801      -2.23909544      -0.70867357
H       -3.61896867      -0.59691954      -0.52921732
H        0.42065714      -2.60352295      -0.06609081
H        2.86762506      -2.43311146       0.27714514
H        3.96837057      -0.17895361       0.53551472
H        2.62539340       1.90210102       0.45161764
H       -1.06640063       1.75992350      -0.06111158
H       -0.54506840       4.04356891       0.12250767
22
Properties=species:S:1:pos:R:3 pbc="F F F"
N       -3.51230291      -1.61795302      -0.56386641
C       -2.33030397      -2.09652116      -0.42195538
O       -1.58368409      -2.97705963      -0.35977345
C       -1.32635473      -0.41591672      -0.20066426
O       -2.24943063       0.43506198      -0.28697612
C        0.06490781      -0.43502100      -0.01117485
C        0.90988869      -1.57827799       0.05007838
C        2.25105272      -1.50283226       0.23732084
C        2.87416650      -0.25726969       0.38223034
C        2.09317834       0.91092644       0.33135580
C        0.75023923       0.87627457       0.14592029
N       -0.07053775       1.99597227       0.08724847
C        0.32501418       3.31960695       0.20672029
O        1.46767348       3.68361499       0.38180060
H       -4.31516641      -2.23419975      -0.70866236
H       -3.61367267      -0.59329591      -0.52830465
H        0.42002292      -2.60340427      -0.06617596
H        2.86725750      -2.43276436       0.27711066
H        3.96773197      -0.17898086       0.53542542
H        2.62399749       1.90173166       0.45140576
H       -1.06759337       1.75863903      -0.06133920
H       -0.54608428       4.04166872       0.12227577
22
Properties=species:S:1:pos:R:3 pbc="F F F"
N       -3.51064530      -1.61702401      -0.56358943
C       -2.33027638      -2.09843666      -0.42204239
O       -1.58137937      -2.97490402      -0.35934917
C       -1.32484307      -0.41454890      -0.20037778
O       -2.24822964       0.43417589      -0.28685674
C        0.06432652      -0.43533932      -0.01126752
C        0.90947560      -1.57912045       0.04998261
C        2.25081093      -1.50303530       0.23727825
C        2.87406910      -0.25760066       0.38220167
C        2.09258889       0.91070211       0.33126363
C        0.74958855       0.87609251       0.14582201
N       -0.07140821       1.99549882       0.08710464
C        0.32428603       3.31742838       0.20651447
O        1.46646879       3.68144886       0.38152871
H       -4.31661520      -2.22934760      -0.70864885
H       -3.60830211      -0.58981047      -0.52738803
H        0.41935035      -2.60328171      -0.06626605
H        2.86688911      -2.43241887       0.27707594
H        3.96708712      -0.17901846       0.53533468
H        2.62257588       1.90139429       0.45119191
H       -1.06874043       1.75736471      -0.06156017
H       -0.54707717       4.03978088       0.12204760
22
Properties=species:S:1:pos:R:3 pbc="F F F"
N       -3.50897956      -1.61608191      -0.56331068
C       -2.33021990      -2.10035605      -0.42212570
O       -1.57917912      -2.97280932      -0.35894226
C       -1.32336360      -0.41317845      -0.20009602
O       -2.24698021       0.43339056      -0.28672555
C        0.06369686      -0.43562386      -0.01136521
C        0.90907271      -1.57998938       0.04988692
C        2.25054949      -1.50323484       0.23723310
C        2.87394116      -0.25792628       0.38216901
C        2.09199463       0.91050194       0.33117189
C        0.74894550       0.87587536       0.14572298
N       -0.07227140       1.99503901       0.08696239
C        0.32359003       3.31525512       0.20631329
O        1.46526036       3.67935075       0.38125971
H       -4.31804340      -2.22454272      -0.70863450
H       -3.60285128      -0.58648087      -0.52646753
H        0.41863651      -2.60315359      -0.06636143
H        2.86651849      -2.43207649       0.27704071
H        3.96643626      -0.17906602       0.53524255
H        2.62112404       1.90108999       0.45097553
H       -1.06984123       1.75610435      -0.06177422
H       -0.54803633       4.03791270       0.12182501
22
Properties=species:S:1:pos:R:3 pbc="F F F"
N       -3.50731233      -1.61512816      -0.56303115
C       -2.33014155      -2.10227321      -0.42220596
O       -1.57705684      -2.97078383      -0.35854944
C       -1.32192266      -0.41180471      -0.19981983
O       -2.24569078       0.43270449      -0.28658382
C        0.06303614      -0.43587146      -0.01146537
C        0.90868063      -1.58088848       0.04979119
C        2.25026939      -1.50343395       0.23718538
C        2.87378631      -0.25824995       0.38213270
C        2.09139368       0.91032729       0.33108038
C        0.74829661       0.87563333       0.14562186
N       -0.07312771       1.99459334       0.08682171
C        0.32292031       3.31310868       0.20611698
O        1.46405127       3.67730900       0.38099342
H       -4.31946076      -2.21978723      -0.70862075
H       -3.59732656      -0.58332862      -0.52554506
H        0.41787775      -2.60301674      -0.06646245
H        2.86614391      -2.43173828       0.27700468
H        3.96577866      -0.17912288       0.53514894
H        2.61963353       1.90081925       0.45075551
H       -1.07089500       1.75486056      -0.06198110
H       -0.54893398       4.03607155       0.12161217
22
Properties=species:S:1:pos:R:3 pbc="F F F"
N       -3.50565266      -1.61416614      -0.56275226
C       -2.33004700      -2.10418323      -0.42228371
O       -1.57499170      -2.96882883      -0.35816787
C       -1.32052589      -0.41043128      -0.19955012
O       -2.24436888       0.43211648      -0.28643270
C        0.06235632      -0.43608731      -0.01156662
C        0.90829945      -1.58182347       0.04969520
C        2.24997103      -1.50363478       0.23713503
C        2.87361460      -0.25858016       0.38209374
C        2.09078470       0.91017947       0.33098899
C        0.74763666       0.87537501       0.14551836
N       -0.07397873       1.99416242       0.08668242
C        0.32226453       3.31100179       0.20592448
O        1.46284164       3.67531580       0.38072948
H       -4.32087839      -2.21507979      -0.70860909
H       -3.59176400      -0.58035668      -0.52462581
H        0.41707015      -2.60286562      -0.06656938
H        2.86576359      -2.43140409       0.27696762
H        3.96511274      -0.17918568       0.53505377
H        2.61809062       1.90058209       0.45052998
H       -1.07190392       1.75363766      -0.06218090
H       -0.54969484       4.03425637       0.12141939
22
Properties=species:S:1:pos:R:3 pbc="F F F"
N       -3.50396719      -1.61312093      -0.56246590
C       -2.32993620      -2.10605983      -0.42235769
O       -1.57299671      -2.96692976      -0.35779860
C       -1.31916462      -0.40899960      -0.19928292
O       -2.24303175       0.43161930      -0.28627516
C        0.06167521      -0.43624505      -0.01166522
C        0.90795374      -1.58281148       0.04960149
C        2.24966659      -1.50382121       0.23708454
C        2.87350833      -0.25886571       0.38206578
C        2.09017904       0.91009547       0.33090109
C        0.74698102       0.87511768       0.14541545
N       -0.07482653       1.99378215       0.08654608
C        0.32161032       3.30904724       0.20573961
O        1.46163895       3.67339926       0.38047031
H       -4.32229566      -2.21038658      -0.70859793
H       -3.58603980      -0.57774836      -0.52370124
H        0.41620450      -2.60261750      -0.06667953
H        2.86522847      -2.43084047       0.27691983
H        3.96412595      -0.17926173       0.53491409
H        2.61626107       1.90029150       0.45026292
H       -1.07282110       1.75245286      -0.06236628
H       -0.54995364       4.03190274       0.12126927
22
Properties=species:S:1:pos:R:3 pbc="F F F"
N       -3.50227394      -1.61200319      -0.56217509
C       -2.32980665      -2.10790370      -0.42242755
O       -1.57103584      -2.96508415      -0.35743652
C       -1.31784074      -0.40753657      -0.19901971
O       -2.24170114       0.43115073      -0.28611766
C        0.06100066      -0.43635731      -0.01176072
C        0.90761933      -1.58387491       0.04950569
C        2.24936178      -1.50400058       0.23703435
C        2.87339667      -0.25910184       0.38203938
C        2.08958277       0.91006779       0.33081716
C        0.74632996       0.87486977       0.14531358
N       -0.07569150       1.99345493       0.08641010
C        0.32092897       3.30720041       0.20555625
O        1.46044846       3.67154633       0.38021599
H       -4.32373171      -2.20567344      -0.70858835
H       -3.58030462      -0.57539748      -0.52278733
H        0.41538333      -2.60216058      -0.06677346
H        2.86471278      -2.43024432       0.27687678
H        3.96314044      -0.17933218       0.53477489
H        2.61437969       1.89965692       0.44997223
H       -1.07365520       1.75131696      -0.06253790
H       -0.55024348       4.02940639       0.12110788
22
Properties=species:S:1:pos:R:3 pbc="F F F"
N       -3.50064694      -1.61081829      -0.56189062
C       -2.32972521      -2.10976897      -0.42250525
O       -1.56917311      -2.96334616      -0.35709321
C       -1.31662402      -0.40608758      -0.19877244
O       -2.24006250       0.43025563      -0.28593911
C        0.06027164      -0.43647608      -0.01186421
C        0.90718865      -1.58507487       0.04938989
C        2.24900468      -1.50423182       0.23697431
C        2.87321455      -0.25934828       0.38200258
C        2.08893825       0.91004788       0.33072677
C        0.74562482       0.87457989       0.14520207
N       -0.07680726       1.99306477       0.08623686
C        0.32012770       3.30540977       0.20535900
O        1.45920833       3.66970650       0.37995543
H       -4.32417287      -2.19965934      -0.70837527
H       -3.57466202      -0.57337647      -0.52190204
H        0.41460176      -2.60168214      -0.06686092
H        2.86414417      -2.42967373       0.27682507
H        3.96209675      -0.17944234       0.53462561
H        2.61250073       1.89892262       0.44967685
H       -1.07444277       1.75019285      -0.06270271
H       -0.55060533       4.02680615       0.12093135
22
Properties=species:S:1:pos:R:3 pbc="F F F"
N       -3.49910226      -1.60948645      -0.56161111
C       -2.32967243      -2.11160320      -0.42258570
O       -1.56738171      -2.96166019      -0.35676240
C       -1.31549260      -0.40460062      -0.19853569
O       -2.23826120       0.42950272      -0.28573029
C        0.05951206      -0.43654592      -0.01196984
C        0.90666864      -1.58630266       0.04926016
C        2.24862915      -1.50445274       0.23691197
C        2.87298649      -0.25955139       0.38196125
C        2.08827050       0.91008832       0.33063580
C        0.74489109       0.87430502       0.14508706
N       -0.07799163       1.99252579       0.08604632
C        0.31922880       3.30369828       0.20515189
O        1.45794188       3.66793496       0.37969439
H       -4.32391166      -2.19408697      -0.70808166
H       -3.56913059      -0.57156258      -0.52104223
H        0.41379911      -2.60115057      -0.06694883
H        2.86354685      -2.42907035       0.27677073
H        3.96101997      -0.17953369       0.53447241
H        2.61060289       1.89821184       0.44937977
H       -1.07515649       1.74916235      -0.06285310
H       -0.55099689       4.02417804       0.12074909
22
Properties=species:S:1:pos:R:3 pbc="F F F"
N       -3.49763794      -1.60806051      -0.56133853
C       -2.32961273      -2.11343571      -0.42266516
O       -1.56561942      -2.96005475      -0.35643939
C       -1.31440324      -0.40310672      -0.19830471
O       -2.23639103       0.42884202      -0.28550709
C        0.05876203      -0.43659521      -0.01207320
C        0.90611204      -1.58754945       0.04912444
C        2.24827325      -1.50468072       0.23685198
C        2.87275201      -0.25974008       0.38191969
C        2.08761775       0.91015672       0.33054820
C        0.74416812       0.87402062       0.14497304
N       -0.07913264       1.99195387       0.08585997
C        0.31828276       3.30201187       0.20493951
O        1.45668789       3.66620049       0.37943695
H       -4.32362571      -2.18858474      -0.70778756
H       -3.56369136      -0.56992283      -0.52020353
H        0.41299853      -2.60058830      -0.06703485
H        2.86295888      -2.42846148       0.27671793
H        3.95994850      -0.17963288       0.53431953
H        2.60871138       1.89750942       0.44908400
H       -1.07578290       1.74821111      -0.06298764
H       -0.55137618       4.02150726       0.12056644
22
Properties=species:S:1:pos:R:3 pbc="F F F"
N       -3.49625676      -1.60658488      -0.56107529
C       -2.32954541      -2.11526988      -0.42274368
O       -1.56388124      -2.95853373      -0.35612368
C       -1.31334683      -0.40161075      -0.19807842
O       -2.23447067       0.42825700      -0.28527303
C        0.05802745      -0.43662792      -0.01217369
C        0.90553593      -1.58880235       0.04898571
C        2.24793613      -1.50491237       0.23679439
C        2.87251565      -0.25991707       0.38187839
C        2.08698247       0.91024738       0.33046404
C        0.74345998       0.87372842       0.14486066
N       -0.08023281       1.99137629       0.08567887
C        0.31730526       3.30033357       0.20472316
O        1.45545091       3.66449764       0.37918348
H       -4.32334035      -2.18313636      -0.70749588
H       -3.55834526      -0.56841679      -0.51938415
H        0.41219922      -2.59999447      -0.06711904
H        2.86238320      -2.42784926       0.27666696
H        3.95888613      -0.17974120       0.53416744
H        2.60682539       1.89681797       0.44878958
H       -1.07634728       1.74733359      -0.06311008
H       -0.55174114       4.01880519       0.12038424
22
Properties=species:S:1:pos:R:3 pbc="F F F"
N       -3.49494777      -1.60508967      -0.56082120
C       -2.32947244      -2.11710789      -0.42282164
O       -1.56216687      -2.95709844      -0.35581528
C       -1.31231838      -0.40011596      -0.19785628
O       -2.23250890       0.42773943      -0.28502978
C        0.05731068      -0.43664514      -0.01227101
C        0.90495034      -1.59005296       0.04884575
C        2.24761514      -1.50514517       0.23673896
C        2.87227919      -0.26008246       0.38183761
C        2.08636387       0.91035854       0.33038313
C        0.74276795       0.87343122       0.14475023
N       -0.08129506       1.99080146       0.08550306
C        0.31630763       3.29865644       0.20450408
O        1.45423298       3.66282600       0.37893423
H       -4.32306770      -2.17774225      -0.70720836
H       -3.55309188      -0.56701474      -0.51858263
H        0.41140185      -2.59936656      -0.06720120
H        2.86182036      -2.42723310       0.27661793
H        3.95783432      -0.17985771       0.53401639
H        2.60494421       1.89614006       0.44849652
H       -1.07686726       1.74651981      -0.06322330
H       -0.55209226       4.01607909       0.12020279
22
Properties=species:S:1:pos:R:3 pbc="F F F"
N       -3.49369933      -1.60359135      -0.56057539
C       -2.32939619      -2.11895235      -0.42289949
O       -1.56047752      -2.95574902      -0.35551438
C       -1.31131388      -0.39862467      -0.19763782
O       -2.23051151       0.42728333      -0.28477847
C        0.05661265      -0.43664724      -0.01236507
C        0.90436144      -1.59129512       0.04870571
C        2.24730792      -1.50537755       0.23668545
C        2.87204338      -0.26023609       0.38179745
C        2.08576020       0.91048969       0.33030519
C        0.74209244       0.87313115       0.14464190
N       -0.08232166       1.99023261       0.08533241
C        0.31529809       3.29697734       0.20428323
O        1.45303546       3.66118663       0.37868945
H       -4.32281617      -2.17240627      -0.70692639
H       -3.54793115      -0.56569612      -0.51779800
H        0.41060818      -2.59870217      -0.06728098
H        2.86127005      -2.42661190       0.27657085
H        3.95679363      -0.17998132       0.53386650
H        2.60306737       1.89547733       0.44820483
H       -1.07735273       1.74576038      -0.06332911
H       -0.55243069       4.01333272       0.12002212
22
Properties=species:S:1:pos:R:3 pbc="F F F"
N       -3.49252184      -1.60212360      -0.56034091
C       -2.32932019      -2.12077541      -0.42297638
O       -1.55884139      -2.95450403      -0.35522583
C       -1.31034574      -0.39716336      -0.19742614
O       -2.22851719       0.42688942      -0.28452437
C        0.05594467      -0.43663499      -0.01245438
C        0.90378314      -1.59250388       0.04856868
C        2.24701741      -1.50560471       0.23663448
C        2.87181262      -0.26037579       0.38175862
C        2.08517940       0.91063802       0.33023122
C        0.74144441       0.87283493       0.14453754
N       -0.08329852       1.98968021       0.08516938
C        0.31429983       3.29532297       0.20406511
O        1.45187887       3.65960714       0.37845331
H       -4.32259541      -2.16721980      -0.70665556
H       -3.54294673      -0.56446673      -0.51704223
H        0.40983375      -2.59801189      -0.06735672
H        2.86074037      -2.42599504       0.27652639
H        3.95578137      -0.18010890       0.53372032
H        2.60122591       1.89484140       0.44791938
H       -1.07780205       1.74505928      -0.06342705
H       -0.55275268       4.01061475       0.11984512
22
Properties=species:S:1:pos:R:3 pbc="F F F"
N       -3.49137046      -1.60064217      -0.56010938
C       -2.32924411      -2.12264213      -0.42305537
O       -1.55720419      -2.95332109      -0.35493998
C       -1.30937820      -0.39568419      -0.19721372
O       -2.22646163       0.42654094      -0.28425951
C        0.05528458      -0.43660814      -0.01254191
C        0.90319893      -1.59371631       0.04843064
C        2.24673274      -1.50583380       0.23658422
C        2.87157986      -0.26050635       0.38171993
C        2.08460077       0.91080929       0.33015860
C        0.74080292       0.87253396       0.14443382
N       -0.08425993       1.98912602       0.08500833
C        0.31328372       3.29363726       0.20384295
O        1.45072578       3.65803630       0.37821814
H       -4.32240385      -2.16201280      -0.70638780
H       -3.53797325      -0.56327675      -0.51628983
H        0.40905547      -2.59727080      -0.06743046
H        2.86021293      -2.42536044       0.27648305
H        3.95476413      -0.18024425       0.53357304
H        2.59935802       1.89421197       0.44763062
H       -1.07823334       1.74438851      -0.06352103
H       -0.55307087       4.00783496       0.11966563
22
Properties=species:S:1:pos:R:3 pbc="F F F"
N       -3.49026053      -1.59917517      -0.55988429
C       -2.32917110      -2.12452419      -0.42313554
O       -1.55559400      -2.95221884      -0.35466168
C       -1.30842439      -0.39421338      -0.19700377
O       -2.22438180       0.42624073      -0.28398882
C        0.05464382      -0.43656734      -0.01262614
C        0.90262092      -1.59490865       0.04829440
C        2.24645767      -1.50606036       0.23653541
C        2.87134950      -0.26062577       0.38168206
C        2.08403304       0.91100150       0.33008845
C        0.74017923       0.87223441       0.14433260
N       -0.08519095       1.98857903       0.08485178
C        0.31227048       3.29194857       0.20362101
O        1.44959707       3.65650223       0.37798821
H       -4.32224906      -2.15687716      -0.70612843
H       -3.53309746      -0.56214078      -0.51555362
H        0.40828998      -2.59649010      -0.06750042
H        2.85969569      -2.42471747       0.27644147
H        3.95375945      -0.18038470       0.53342723
H        2.59749541       1.89360048       0.44734349
H       -1.07864103       1.74375600      -0.06360985
H       -0.55338196       4.00504096       0.11948645
22
Properties=species:S:1:pos:R:3 pbc="F F F"
N       -3.48918865      -1.59772483      -0.55966528
C       -2.32910293      -2.12642425      -0.42321726
O       -1.55401117      -2.95119477      -0.35439085
C       -1.30748131      -0.39275225      -0.19679591
O       -2.22228084       0.42598560      -0.28371290
C        0.05402256      -0.43651307      -0.01270706
C        0.90205100      -1.59607824       0.04816033
C        2.24619137      -1.50628392       0.23648794
C        2.87112225      -0.26073446       0.38164512
C        2.08347553       0.91121542       0.33002073
C        0.73957351       0.87193731       0.14423396
N       -0.08609323       1.98803874       0.08469947
C        0.31126311       3.29025800       0.20339973
O        1.44849411       3.65500657       0.37776376
H       -4.32213440      -2.15181645      -0.70587811
H       -3.52832212      -0.56105486      -0.51483381
H        0.40754117      -2.59567018      -0.06756607
H        2.85918786      -2.42406561       0.27640159
H        3.95276813      -0.18052981       0.53328300
H        2.59563901       1.89300776       0.44705816
H       -1.07902656       1.74315876      -0.06369384
H       -0.55368842       4.00223454       0.11930731
22
Properties=species:S:1:pos:R:3 pbc="F F F"
N       -3.48815202      -1.59629269      -0.55945204
C       -2.32904115      -2.12834467      -0.42330086
O       -1.55245600      -2.95024607      -0.35412743
C       -1.30654611      -0.39130209      -0.19658981
O       -2.22016194       0.42577309      -0.28343232
C        0.05342101      -0.43644577      -0.01278468
C        0.90149057      -1.59722285       0.04802875
C        2.24593307      -1.50650390       0.23644175
C        2.87089884      -0.26083280       0.38160918
C        2.08292782       0.91145203       0.32995541
C        0.73898595       0.87164367       0.14413797
N       -0.08696834       1.98750452       0.08455117
C        0.31026404       3.28856718       0.20317952
O        1.44741805       3.65355084       0.37754505
H       -4.32206250      -2.14683392      -0.70563735
H       -3.52365024      -0.56001674      -0.51413072
H        0.40681354      -2.59481280      -0.06762688
H        2.85868849      -2.42340437       0.27636329
H        3.95179095      -0.18067914       0.53314050
H        2.59378989       1.89243472       0.44677481
H       -1.07939088       1.74259429      -0.06377327
H       -0.55399303       3.99941748       0.11912792
22
Properties=species:S:1:pos:R:3 pbc="F F F"
N       -3.48714800      -1.59487981      -0.55924426
C       -2.32898704      -2.13028769      -0.42338660
O       -1.55092864      -2.94936978      -0.35387128
C       -1.30561607      -0.38986403      -0.19638514
O       -2.21802839       0.42560131      -0.28314762
C        0.05283934      -0.43636589      -0.01285897
C        0.90094065      -1.59834082       0.04789987
C        2.24568209      -1.50671964       0.23639678
C        2.87067993      -0.26092114       0.38157432
C        2.08238969       0.91171243       0.32989253
C        0.73841677       0.87135445       0.14404474
N       -0.08781783       1.98697567       0.08440663
C        0.30927515       3.28687811       0.20296075
O        1.44636979       3.65213627       0.37733223
H       -4.32203537      -2.14193217      -0.70540656
H       -3.51908473      -0.55902544      -0.51344470
H        0.40611159      -2.59392030      -0.06768235
H        2.85819647      -2.42273329       0.27632644
H        3.95082871      -0.18083230       0.53299985
H        2.59194924       1.89188225       0.44649366
H       -1.07973460       1.74206037      -0.06384829
H       -0.55429875       3.99659144       0.11894795
22
Properties=species:S:1:pos:R:3 pbc="F F F"
N       -3.48617389      -1.59348675      -0.55904159
C       -2.32894141      -2.13225540      -0.42347470
O       -1.54942910      -2.94856285      -0.35362229
C       -1.30468854      -0.38843891      -0.19618155
O       -2.21588329       0.42546897      -0.28285930
C        0.05227768      -0.43627383      -0.01292994
C        0.90040183      -1.59943101       0.04777383
C        2.24543769      -1.50693035       0.23635296
C        2.87046607      -0.26099980       0.38154061
C        2.08186105       0.91199776       0.32983213
C        0.73786641       0.87107050       0.14395434
N       -0.08864304       1.98645130       0.08426562
C        0.30829770       3.28519283       0.20274369
O        1.44534977       3.65076351       0.37712542
H       -4.32205412      -2.13711305      -0.70518599
H       -3.51462816      -0.55808122      -0.51277614
H        0.40543936      -2.59299452      -0.06773199
H        2.85771036      -2.42205182       0.27629087
H        3.94988195      -0.18098901       0.53286114
H        2.59011827       1.89135113       0.44621490
H       -1.08005791       1.74155491      -0.06391905
H       -0.55460865       3.99375760       0.11876703
22
Properties=species:S:1:pos:R:3 pbc="F F F"
N       -3.48522728      -1.59211404      -0.55884374
C       -2.32890507      -2.13424999      -0.42356538
O       -1.54795744      -2.94782251      -0.35338033
C       -1.30376106      -0.38702734      -0.19597874
O       -2.21372998       0.42537524      -0.28256787
C        0.05173586      -0.43617004      -0.01299762
C        0.89987456      -1.60049266       0.04765074
C        2.24519928      -1.50713535       0.23631024
C        2.87025791      -0.26106910       0.38150812
C        2.08134206       0.91230926       0.32977430
C        0.73733574       0.87079282       0.14386697
N       -0.08944517       1.98593073       0.08412794
C        0.30733267       3.28351386       0.20252858
O        1.44435816       3.64943306       0.37692464
H       -4.32211988      -2.13237804      -0.70497586
H       -3.51028290      -0.55718481      -0.51212540
H        0.40480072      -2.59203782      -0.06777540
H        2.85722874      -2.42135962       0.27625640
H        3.94895140      -0.18114911       0.53272447
H        2.58829851       1.89084218       0.44593879
H       -1.08036088       1.74107595      -0.06398563
H       -0.55492596       3.99091735       0.11858478
22
Properties=species:S:1:pos:R:3 pbc="F F F"
N       -3.48430598      -1.59076240      -0.55865044
C       -2.32887865      -2.13627378      -0.42365883
O       -1.54651276      -2.94714557      -0.35314513
C       -1.30283114      -0.38562948      -0.19577635
O       -2.21157157       0.42531962      -0.28227377
C        0.05121335      -0.43605495      -0.01306211
C        0.89935911      -1.60152504       0.04753067
C        2.24496613      -1.50733391       0.23626856
C        2.87005592      -0.26112935       0.38147691
C        2.08083287       0.91264815       0.32971911
C        0.73682587       0.87052233       0.14378282
N       -0.09022520       1.98541321       0.08399342
C        0.30638069       3.28184381       0.20231565
O        1.44339459       3.64814481       0.37672985
H       -4.32223333      -2.12772751      -0.70477630
H       -3.50605063      -0.55633742      -0.51149280
H        0.40419926      -2.59105288      -0.06781221
H        2.85674986      -2.42065632       0.27622279
H        3.94803749      -0.18131261       0.53258992
H        2.58649149       1.89035609       0.44566556
H       -1.08064342       1.74062144      -0.06404812
H       -0.55525393       3.98807175       0.11840081
22
Properties=species:S:1:pos:R:3 pbc="F F F"
N       -3.48340805      -1.58943283      -0.55846148
C       -2.32886273      -2.13832929      -0.42375524
O       -1.54509384      -2.94652888      -0.35291639
C       -1.30189630      -0.38424536      -0.19557402
O       -2.20941080       0.42530179      -0.28197742
C        0.05070943      -0.43592907      -0.01312352
C        0.89885561      -1.60252763       0.04741366
C        2.24473751      -1.50752538       0.23622785
C        2.86986048      -0.26118087       0.38144701
C        2.08033368       0.91301566       0.32966666
C        0.73633741       0.87025979       0.14370202
N       -0.09098415       1.98489795       0.08386189
C        0.30544217       3.28018550       0.20210507
O        1.44245824       3.64689818       0.37654088
H       -4.32239495      -2.12315939      -0.70458728
H       -3.50193208      -0.55554036      -0.51087849
H        0.40363819      -2.59004274      -0.06784212
H        2.85627191      -2.41994188       0.27618982
H        3.94714047      -0.18147965       0.53245750
H        2.58469891       1.88989340       0.44539547
H       -1.08090530       1.74018928      -0.06410660
H       -0.55559581       3.98522179       0.11821470
22
Properties=species:S:1:pos:R:3 pbc="F F F"
N       -3.48253159      -1.58812597      -0.55827663
C       -2.32885769      -2.14041893      -0.42385479
O       -1.54369998      -2.94596957      -0.35269387
C       -1.30095444      -0.38287527      -0.19537147
O       -2.20724977       0.42532169      -0.28167908
C        0.05022348      -0.43579285      -0.01318195
C        0.89836397      -1.60349997       0.04729973
C        2.24451272      -1.50770892       0.23618807
C        2.86967194      -0.26122379       0.38141847
C        2.07984481       0.91341322       0.32961706
C        0.73587060       0.87000603       0.14362465
N       -0.09172301       1.98438424       0.08373317
C        0.30451700       3.27854204       0.20189700
O        1.44154788       3.64569238       0.37635754
H       -4.32260464      -2.11867272      -0.70440873
H       -3.49792711      -0.55479504      -0.51028253
H        0.40312036      -2.58901069      -0.06786490
H        2.85579333      -2.41921677       0.27615723
H        3.94626055      -0.18165033       0.53232724
H        2.58292272       1.88945471       0.44512882
H       -1.08114631       1.73977768      -0.06416111
H       -0.55595482       3.98236882       0.11802608
22
Properties=species:S:1:pos:R:3 pbc="F F F"
N       -3.48167429      -1.58684199      -0.55809559
C       -2.32886371      -2.14254490      -0.42395759
O       -1.54232938      -2.94546412      -0.35247715
C       -1.30000426      -0.38152066      -0.19516858
O       -2.20508998       0.42537923      -0.28137898
C        0.04975497      -0.43564674      -0.01323750
C        0.89788373      -1.60444180       0.04718882
C        2.24429091      -1.50788370       0.23614912
C        2.86949037      -0.26125822       0.38139130
C        2.07936640       0.91384230       0.32957040
C        0.73542546       0.86976181       0.14355075
N       -0.09244284       1.98387130       0.08360708
C        0.30360463       3.27691654       0.20169150
O        1.44066160       3.64452610       0.37617949
H       -4.32286139      -2.11426628      -0.70424047
H       -3.49403429      -0.55410263      -0.50970480
H        0.40264803      -2.58796025      -0.06788043
H        2.85531213      -2.41848089       0.27612476
H        3.94539746      -0.18182479       0.53219910
H        2.58116483       1.88904047       0.44486589
H       -1.08136623       1.73938497      -0.06421170
H       -0.55633414       3.97951425       0.11783457
22
Properties=species:S:1:pos:R:3 pbc="F F F"
N       -3.48083338      -1.58558069      -0.55791797
C       -2.32888102      -2.14470928      -0.42406378
O       -1.54098190      -2.94500977      -0.35226609
C       -1.29904493      -0.38018398      -0.19496536
O       -2.20293263       0.42547428      -0.28107729
C        0.04930341      -0.43549126      -0.01329025
C        0.89741433      -1.60535317       0.04708087
C        2.24407122      -1.50804893       0.23611093
C        2.86931574      -0.26128417       0.38136550
C        2.07889856       0.91430441       0.32952677
C        0.73500191       0.86952794       0.14348036
N       -0.09314456       1.98335853       0.08348346
C        0.30270458       3.27531234       0.20148867
O        1.43979705       3.64339779       0.37600633
H       -4.32316347      -2.10993821      -0.70408216
H       -3.49025053      -0.55346354      -0.50914489
H        0.40222291      -2.58689575      -0.06788866
H        2.85482622      -2.41773379       0.27609214
H        3.94455089      -0.18200320       0.53207304
H        2.57942731       1.88865108       0.44460698
H       -1.08156491       1.73900966      -0.06425842
H       -0.55673681       3.97665971       0.11763984
22
Properties=species:S:1:pos:R:3 pbc="F F F"
N       -3.48000648      -1.58434207      -0.55774346
C       -2.32891010      -2.14691401      -0.42417351
O       -1.53965737      -2.94460388      -0.35206054
C       -1.29807602      -0.37886770      -0.19476185
O       -2.20077892       0.42560666      -0.28077418
C        0.04886835      -0.43532701      -0.01334029
C        0.89695519      -1.60623454       0.04697576
C        2.24385302      -1.50820405       0.23607345
C        2.86914819      -0.26130159       0.38134109
C        2.07844162       0.91480110       0.32948629
C        0.73459996       0.86930528       0.14341351
N       -0.09382871       1.98284561       0.08336222
C        0.30181618       3.27373302       0.20128861
O        1.43895172       3.64230614       0.37583764
H       -4.32350884      -2.10568628      -0.70393343
H       -3.48657313      -0.55287836      -0.50860246
H        0.40184613      -2.58582221      -0.06788969
H        2.85433372      -2.41697521       0.27605913
H        3.94372077      -0.18218582       0.53194901
H        2.57771264       1.88828694       0.44435245
H       -1.08174225       1.73865076      -0.06430131
H       -0.55716567       3.97380721       0.11744158
22
Properties=species:S:1:pos:R:3 pbc="F F F"
N       -3.47919111      -1.58312623      -0.55757170
C       -2.32895113      -2.14916038      -0.42428687
O       -1.53835534      -2.94424364      -0.35186029
C       -1.29709686      -0.37757357      -0.19455806
O       -2.19862967       0.42577602      -0.28046977
C        0.04844930      -0.43515459      -0.01338772
C        0.89650557      -1.60708647       0.04687338
C        2.24363541      -1.50834843       0.23603657
C        2.86898747      -0.26131038       0.38131804
C        2.07799584       0.91533380       0.32944906
C        0.73421957       0.86909446       0.14335024
N       -0.09449541       1.98233204       0.08324331
C        0.30093852       3.27218162       0.20109132
O        1.43812280       3.64124947       0.37567296
H       -4.32389448      -2.10150773      -0.70379372
H       -3.48299939      -0.55234800      -0.50807719
H        0.40151795      -2.58474372      -0.06788369
H        2.85383244      -2.41620475       0.27602544
H        3.94290653      -0.18237307       0.53182694
H        2.57602323       1.88794801       0.44410263
H       -1.08189809       1.73830738      -0.06434039
H       -0.55762316       3.97095816       0.11723953
22
Properties=species:S:1:pos:R:3 pbc="F F F"
N       -3.47838522      -1.58193363      -0.55740247
C       -2.32900464      -2.15144962      -0.42440399
O       -1.53707546      -2.94392649      -0.35166519
C       -1.29610662      -0.37630263      -0.19435391
O       -2.19648588       0.42598187      -0.28016423
C        0.04804577      -0.43497461      -0.01343261
C        0.89606484      -1.60790992       0.04677359
C        2.24341759      -1.50848163       0.23600021
C        2.86883350      -0.26131045       0.38129634
C        2.07756157       0.91590426       0.32941522
C        0.73386073       0.86889618       0.14329057
N       -0.09514443       1.98181757       0.08312676
C        0.30007077       3.27066126       0.20089687
O        1.43730751       3.64022651       0.37551183
H       -4.32431745      -2.09739970      -0.70366250
H       -3.47952665      -0.55187337      -0.50756876
H        0.40123805      -2.58366516      -0.06787094
H        2.85332039      -2.41542231       0.27599081
H        3.94210784      -0.18256544       0.53170675
H        2.57436176       1.88763420       0.44385787
H       -1.08203253       1.73797900      -0.06437569
H       -0.55811144       3.96811411       0.11703346
22
Properties=species:S:1:pos:R:3 pbc="F F F"
N       -3.47758691      -1.58076477      -0.55723551
C       -2.32907120      -2.15378261      -0.42452499
O       -1.53581737      -2.94365001      -0.35147505
C       -1.29510460      -0.37505558      -0.19414932
O       -2.19434846       0.42622360      -0.27985771
C        0.04765722      -0.43478763      -0.01347508
C        0.89563233      -1.60870603       0.04667625
C        2.24319900      -1.50860345       0.23596431
C        2.86868615      -0.26130169       0.38127599
C        2.07713930       0.91651418       0.32938492
C        0.73352338       0.86871106       0.14323454
N       -0.09577520       1.98130206       0.08301264
C        0.29921208       3.26917478       0.20070526
O        1.43650292       3.63923611       0.37535380
H       -4.32477456      -2.09335919      -0.70353918
H       -3.47615214      -0.55145541      -0.50707685
H        0.40100539      -2.58259118      -0.06785181
H        2.85279556      -2.41462785       0.27595496
H        3.94132433      -0.18276350       0.53158836
H        2.57273093       1.88734517       0.44361853
H       -1.08214584       1.73766544      -0.06440726
H       -0.55863231       3.96527648       0.11682318
22
Properties=species:S:1:pos:R:3 pbc="F F F"
N       -3.47679480      -1.57962053      -0.55707069
C       -2.32915136      -2.15615991      -0.42464996
O       -1.53458087      -2.94341213      -0.35128974
C       -1.29409023      -0.37383275      -0.19394424
O       -2.19221813       0.42650049      -0.27955033
C        0.04728319      -0.43459415      -0.01351521
C        0.89520749      -1.60947612       0.04658122
C        2.24297926      -1.50871383       0.23592880
C        2.86854541      -0.26128401       0.38125699
C        2.07672990       0.91716493       0.32935833
C        0.73320742       0.86853978       0.14318217
N       -0.09638688       1.98078565       0.08290108
C        0.29836170       3.26772502       0.20051655
O        1.43570608       3.63827749       0.37519841
H       -4.32526273      -2.08938321      -0.70342320
H       -3.47287323      -0.55109507      -0.50660114
H        0.40081832      -2.58152635      -0.06782675
H        2.85225608      -2.41382155       0.27591762
H        3.94055582      -0.18296786       0.53147172
H        2.57113357       1.88708050       0.44338498
H       -1.08223873       1.73736680      -0.06443519
H       -0.55918728       3.96244683       0.11660858
22
Properties=species:S:1:pos:R:3 pbc="F F F"
N       -3.47600736      -1.57850202      -0.55690786
C       -2.32924577      -2.15858193      -0.42477902
O       -1.53336574      -2.94321065      -0.35110912
C       -1.29306261      -0.37263404      -0.19373851
O       -2.19009491       0.42681172      -0.27924212
C        0.04692322      -0.43439463      -0.01355307
C        0.89478972      -1.61022150       0.04648835
C        2.24275776      -1.50881276       0.23589361
C        2.86841097      -0.26125732       0.38123929
C        2.07633409       0.91785763       0.32933561
C        0.73291259       0.86838298       0.14313344
N       -0.09697839       1.98026857       0.08279222
C        0.29751906       3.26631429       0.20033077
O        1.43491375       3.63734966       0.37504517
H       -4.32577843      -2.08546848      -0.70331393
H       -3.46968638      -0.55079258      -0.50614115
H        0.40067454      -2.58047473      -0.06779629
H        2.85169980      -2.41300351       0.27587850
H        3.93980176      -0.18317914       0.53135673
H        2.56957210       1.88683942       0.44315749
H       -1.08231219       1.73708264      -0.06445964
H       -0.55977757       3.95962635       0.11638953
22
Properties=species:S:1:pos:R:3 pbc="F F F"
N       -3.47522350      -1.57741038      -0.55674693
C       -2.32935499      -2.16104902      -0.42491225
O       -1.53217231      -2.94304408      -0.35093315
C       -1.29202080      -0.37145897      -0.19353199
O       -2.18797946       0.42715624      -0.27893324
C        0.04657707      -0.43418973      -0.01358873
C        0.89437847      -1.61094393       0.04639749
C        2.24253418      -1.50890050       0.23585868
C        2.86828277      -0.26122168       0.38122289
C        2.07595297       0.91859326       0.32931696
C        0.73263866       0.86824138       0.14308836
N       -0.09754838       1.97975153       0.08268630
C        0.29668366       3.26494498       0.20014797
O        1.43412283       3.63645224       0.37489363
H       -4.32631835      -2.08161197      -0.70321077
H       -3.46658850      -0.55054793      -0.50569647
H        0.40057142      -2.57944051      -0.06776098
H        2.85112486      -2.41217427       0.27583730
H        3.93906203      -0.18339798       0.53124334
H        2.56804911       1.88662121       0.44293640
H       -1.08236758       1.73681342      -0.06448079
H       -0.56040414       3.95681667       0.11616598
22
Properties=species:S:1:pos:R:3 pbc="F F F"
N       -3.47444193      -1.57634633      -0.55658777
C       -2.32947948      -2.16356168      -0.42504976
O       -1.53100118      -2.94291106      -0.35076185
C       -1.29096364      -0.37030683      -0.19332445
O       -2.18587265       0.42753255      -0.27862386
C        0.04624464      -0.43398016      -0.01362225
C        0.89397308      -1.61164539       0.04630846
C        2.24230811      -1.50897742       0.23582394
C        2.86816064      -0.26117727       0.38120776
C        2.07558760       0.91937257       0.32930254
C        0.73238539       0.86811571       0.14304693
N       -0.09809535       1.97923546       0.08258357
C        0.29585508       3.26361910       0.19996821
O        1.43333026       3.63558502       0.37474337
H       -4.32687890      -2.07781030      -0.70311308
H       -3.46357609      -0.55036064      -0.50526659
H        0.40050599      -2.57842746      -0.06772142
H        2.85052937      -2.41133455       0.27579374
H        3.93833646      -0.18362505       0.53113148
H        2.56656689       1.88642498       0.44272195
H       -1.08240656       1.73655946      -0.06449885
H       -0.56106773       3.95401931       0.11593791
22
Properties=species:S:1:pos:R:3 pbc="F F F"
N       -3.47366155      -1.57531039      -0.55643026
C       -2.32961967      -2.16612059      -0.42519162
O       -1.52985339      -2.94281049      -0.35059529
C       -1.28989009      -0.36917700      -0.19311571
O       -2.18377576       0.42793853      -0.27831426
C        0.04592572      -0.43376640      -0.01365366
C        0.89357288      -1.61232821       0.04622105
C        2.24207927      -1.50904408       0.23578932
C        2.86804457      -0.26112437       0.38119388
C        2.07523930       0.92019606       0.32929256
C        0.73215267       0.86800677       0.14300918
N       -0.09861760       1.97872176       0.08248433
C        0.29503302       3.26233868       0.19979153
O        1.43253327       3.63474838       0.37459402
H       -4.32745667      -2.07406004      -0.70302023
H       -3.46064571      -0.55023009      -0.50485100
H        0.40047507      -2.57743903      -0.06767823
H        2.84991174      -2.41048552       0.27574754
H        3.93762521      -0.18386107       0.53102116
H        2.56512768       1.88624992       0.44251443
H       -1.08243110       1.73632100      -0.06451408
H       -0.56176887       3.95123618       0.11570534
22
Properties=species:S:1:pos:R:3 pbc="F F F"
N       -3.47288131      -1.57430296      -0.55627426
C       -2.32977564      -2.16872633      -0.42533789
O       -1.52873027      -2.94274118      -0.35043360
C       -1.28879916      -0.36806893      -0.19290562
O       -2.18169017       0.42837142      -0.27800477
C        0.04562016      -0.43354874      -0.01368302
C        0.89317707      -1.61299476       0.04613504
C        2.24184725      -1.50910103       0.23575473
C        2.86793438      -0.26106334       0.38118120
C        2.07490945       0.92106398       0.32928723
C        0.73194062       0.86791539       0.14297515
N       -0.09911319       1.97821226       0.08238895
C        0.29421706       3.26110540       0.19961798
O        1.43172920       3.63394299       0.37444523
H       -4.32804812      -2.07035757      -0.70293158
H       -3.45779369      -0.55015575      -0.50444916
H        0.40047529      -2.57647792      -0.06763199
H        2.84927036      -2.40962853       0.27569842
H        3.93692836      -0.18410678       0.53091235
H        2.56373341       1.88609507       0.44231403
H       -1.08244319       1.73609797      -0.06452677
H       -0.56250788       3.94846933       0.11546832
