22
Properties=species:S:1:pos:R:3 pbc="F F F"
C       -2.56367707       1.95827901       0.04210800
C       -2.13016200      -0.41681400      -0.03029300
C       -2.96233201      -1.64703703      -0.07391300
C       -0.75175703      -0.33317500      -0.01659400
C       -0.14444600       0.95423502       0.02959000
C        1.20148695       1.14795804       0.04889300
C        2.05955505       0.04090000       0.02297000
C        3.54100108       0.24904101       0.04025900
C        1.50863504      -1.23870003      -0.02400300
C        0.15309800      -1.44247305      -0.04391400
H       -2.74458289       2.57824993      -0.83664799
H       -2.75850201       2.51587701       0.95882601
H       -2.36024189      -2.56302810      -0.10154000
H       -3.61191392      -1.67825198       0.80493701
H       -3.60535192      -1.62049699      -0.95768201
H       -0.87342697       1.79112506       0.04966200
H        1.62729704       2.14503098       0.08525800
H        4.06098080      -0.70672202       0.10070200
H        3.85393310       0.76810402      -0.86791998
H        3.82247090       0.86802799       0.89382100
H        2.17982888      -2.09258199      -0.04424900
H       -0.25767699      -2.44453812      -0.08018600
22
Properties=species:S:1:pos:R:3 pbc="F F F"
C       -2.59209179       2.04515654       0.04329602
C       -2.11027330      -0.36362666      -0.03086272
C       -2.93827097      -1.58918375      -0.07355692
C       -0.68745026      -0.28017167      -0.01652244
C       -0.07719526       0.99491157       0.02826853
C        1.22612993       1.18577452       0.04891773
C        2.08459530       0.08403763       0.02250273
C        3.57859929       0.29317507       0.04002505
C        1.53629194      -1.19601028      -0.02600746
C        0.18684964      -1.38152065      -0.04310049
H       -2.73071319       2.62671574      -0.85675111
H       -2.74423262       2.56251835       0.97842861
H       -2.33496347      -2.53218849      -0.10244736
H       -3.57556749      -1.61249114       0.80494558
H       -3.56895333      -1.55423384      -0.95631762
H       -0.83319054       1.90379969       0.04946403
H        1.64599090       2.22868226       0.08172242
H        4.13182709      -0.66630986       0.09559698
H        3.92831138       0.82247813      -0.87461823
H        3.89693687       0.90692716       0.90920668
H        2.20858112      -2.06515759      -0.04317757
H       -0.23121123      -2.41328274      -0.07901241
