22
Properties=species:S:1:pos:R:3 pbc="F F F"
C       -2.67908192       1.45508695       0.05114100
C       -2.14857507       0.11133000       0.00490600
C       -2.92593408      -1.14816904      -0.07189900
C       -0.67622101      -0.05624600       0.00689200
C        0.04903500       1.14615297       0.06197400
C        1.42007995       1.14970100       0.05903000
C        2.16152811      -0.03744600       0.02464700
C        3.66463304       0.11890900       0.03102700
C        1.46647894      -1.24726903      -0.01519300
C        0.07366700      -1.26451898      -0.02366900
H       -3.39722109       1.32948601      -0.81403202
H       -3.48728490       1.33529794       0.82040399
H       -2.28381300      -2.02999902      -0.12650800
H       -3.58272195      -1.23102498       0.80541801
H       -3.57119298      -1.07535803      -0.95020503
H       -0.56208003       2.03802896       0.09514200
H        1.94715095       2.08942795       0.09398300
H        4.21932411      -0.81753498       0.08966000
H        3.98917389       0.65593803      -0.87108898
H        3.94062495       0.74366403       0.88423097
H        2.01612496      -2.18470502      -0.08353000
H       -0.38947901      -2.24774194      -0.07224600
22
Properties=species:S:1:pos:R:3 pbc="F F F"
C       -2.59209179       2.04515654       0.04329602
C       -2.11027330      -0.36362666      -0.03086272
C       -2.93827097      -1.58918375      -0.07355692
C       -0.68745026      -0.28017167      -0.01652244
C       -0.07719526       0.99491157       0.02826853
C        1.22612993       1.18577452       0.04891773
C        2.08459530       0.08403763       0.02250273
C        3.57859929       0.29317507       0.04002505
C        1.53629194      -1.19601028      -0.02600746
C        0.18684964      -1.38152065      -0.04310049
H       -2.73071319       2.62671574      -0.85675111
H       -2.74423262       2.56251835       0.97842861
H       -2.33496347      -2.53218849      -0.10244736
H       -3.57556749      -1.61249114       0.80494558
H       -3.56895333      -1.55423384      -0.95631762
H       -0.83319054       1.90379969       0.04946403
H        1.64599090       2.22868226       0.08172242
H        4.13182709      -0.66630986       0.09559698
H        3.92831138       0.82247813      -0.87461823
H        3.89693687       0.90692716       0.90920668
H        2.20858112      -2.06515759      -0.04317757
H       -0.23121123      -2.41328274      -0.07901241
