22
Properties=species:S:1:pos:R:3 pbc="F F F"
C       -2.59209179       2.04515654       0.04329602
C       -2.11027330      -0.36362666      -0.03086272
C       -2.93827097      -1.58918375      -0.07355692
C       -0.68745026      -0.28017167      -0.01652244
C       -0.07719526       0.99491157       0.02826853
C        1.22612993       1.18577452       0.04891773
C        2.08459530       0.08403763       0.02250273
C        3.57859929       0.29317507       0.04002505
C        1.53629194      -1.19601028      -0.02600746
C        0.18684964      -1.38152065      -0.04310049
H       -2.73071319       2.62671574      -0.85675111
H       -2.74423262       2.56251835       0.97842861
H       -2.33496347      -2.53218849      -0.10244736
H       -3.57556749      -1.61249114       0.80494558
H       -3.56895333      -1.55423384      -0.95631762
H       -0.83319054       1.90379969       0.04946403
H        1.64599090       2.22868226       0.08172242
H        4.13182709      -0.66630986       0.09559698
H        3.92831138       0.82247813      -0.87461823
H        3.89693687       0.90692716       0.90920668
H        2.20858112      -2.06515759      -0.04317757
H       -0.23121123      -2.41328274      -0.07901241
22
Properties=species:S:1:pos:R:3 pbc="F F F"
C       -2.59359985       2.04586442       0.04329737
C       -2.10584989      -0.37200381      -0.03095373
C       -2.93711819      -1.58944818      -0.07357379
C       -0.68545943      -0.28044162      -0.01652443
C       -0.07732784       0.99433944       0.02826730
C        1.22640888       1.18766253       0.04870229
C        2.08816123       0.08664978       0.02252407
C        3.58133740       0.29363771       0.03996124
C        1.53353572      -1.19510189      -0.02542617
C        0.18452446      -1.38272283      -0.04304251
H       -2.73149237       2.62660884      -0.85647182
H       -2.74502167       2.56239618       0.97816274
H       -2.33797453      -2.53147205      -0.10239763
H       -3.57426324      -1.61140186       0.80268960
H       -3.56760599      -1.55332267      -0.95411939
H       -0.83751641       1.90664411       0.04958798
H        1.64502247       2.22902690       0.08166795
H        4.13292052      -0.66666787       0.09527564
H        3.92832665       0.82230062      -0.87438656
H        3.89742524       0.90641075       0.90895390
H        2.20762612      -2.06520741      -0.04316928
H       -0.23205927      -2.41375109      -0.07902477
22
Properties=species:S:1:pos:R:3 pbc="F F F"
C       -2.59460366       2.04700809       0.04331659
C       -2.10390487      -0.37596891      -0.03098749
C       -2.93660160      -1.58949831      -0.07357981
C       -0.68387085      -0.28069524      -0.01654442
C       -0.07756924       0.99431310       0.02824088
C        1.22699542       1.18902214       0.04848292
C        2.09025692       0.08797105       0.02250365
C        3.58154154       0.29360801       0.03993945
C        1.53257863      -1.19420667      -0.02497823
C        0.18342183      -1.38327182      -0.04295205
H       -2.73134285       2.62654728      -0.85589504
H       -2.74487731       2.56235515       0.97763308
H       -2.34002387      -2.53187440      -0.10238503
H       -3.57393788      -1.61135778       0.80198301
H       -3.56728812      -1.55333904      -0.95350067
H       -0.83835886       1.90731213       0.04963701
H        1.64487855       2.22888798       0.08166970
H        4.13301707      -0.66678820       0.09521927
H        3.92763250       0.82223988      -0.87458199
H        3.89688025       0.90646823       0.90902412
H        2.20735327      -2.06503754      -0.04320243
H       -0.23217685      -2.41369511      -0.07904252
22
Properties=species:S:1:pos:R:3 pbc="F F F"
C       -2.59526842       2.04808802       0.04334206
C       -2.10286432      -0.37821602      -0.03099886
C       -2.93631273      -1.58950277      -0.07358513
C       -0.68268000      -0.28091079      -0.01656492
C       -0.07761011       0.99429397       0.02821745
C        1.22755951       1.18996719       0.04830716
C        2.09159424       0.08869698       0.02248247
C        3.58133635       0.29357239       0.03993600
C        1.53227891      -1.19345951      -0.02466983
C        0.18288920      -1.38349486      -0.04287492
H       -2.73091803       2.62633941      -0.85534001
H       -2.74445725       2.56218091       0.97711751
H       -2.34150692      -2.53238355      -0.10238121
H       -3.57370870      -1.61148188       0.80158613
H       -3.56706523      -1.55349540      -0.95317436
H       -0.83846703       1.90742657       0.04965608
H        1.64486458       2.22848692       0.08171971
H        4.13256783      -0.66680408       0.09528887
H        3.92663380       0.82213714      -0.87480198
H        3.89588998       0.90673667       0.90905398
H        2.20725319      -2.06475779      -0.04325236
H       -0.23200884      -2.41341953      -0.07906384
22
Properties=species:S:1:pos:R:3 pbc="F F F"
C       -2.59557312       2.04884293       0.04336244
C       -2.10217517      -0.37965592      -0.03100151
C       -2.93612454      -1.58948919      -0.07358952
C       -0.68174612      -0.28108036      -0.01658212
C       -0.07748838       0.99430110       0.02820500
C        1.22806758       1.19065535       0.04817636
C        2.09250312       0.08914997       0.02246741
C        3.58104091       0.29357607       0.03994072
C        1.53222364      -1.19284559      -0.02445793
C        0.18266254      -1.38355622      -0.04281424
H       -2.73043869       2.62610971      -0.85489838
H       -2.74398599       2.56198799       0.97671083
H       -2.34261485      -2.53282250      -0.10237849
H       -3.57351149      -1.61165748       0.80131476
H       -3.56687162      -1.55369299      -0.95295969
H       -0.83838943       1.90743120       0.04966689
H        1.64486455       2.22781570       0.08179732
H        4.13183040      -0.66671840       0.09542356
H        3.92549819       0.82200489      -0.87495920
H        3.89471178       0.90708690       0.90896975
H        2.20722464      -2.06441240      -0.04330834
H       -0.23170793      -2.41303076      -0.07908561
22
Properties=species:S:1:pos:R:3 pbc="F F F"
C       -2.59553766       2.04917287       0.04337120
C       -2.10165371      -0.38062925      -0.03100022
C       -2.93598497      -1.58947463      -0.07359355
C       -0.68099151      -0.28121174      -0.01659625
C       -0.07724902       0.99433963       0.02820295
C        1.22852216       1.19118092       0.04808054
C        2.09314396       0.08945544       0.02245826
C        3.58072609       0.29361389       0.03994885
C        1.53226839      -1.19233902      -0.02430912
C        0.18261101      -1.38353512      -0.04276779
H       -2.72999932       2.62593350      -0.85458902
H       -2.74355906       2.56184720       0.97643475
H       -2.34346559      -2.53317998      -0.10237535
H       -3.57333823      -1.61186218       0.80111654
H       -3.56670026      -1.55391452      -0.95280951
H       -0.83827186       1.90739838       0.04967768
H        1.64489943       2.22702751       0.08189155
H        4.13093809      -0.66654599       0.09559208
H        3.92429871       0.82185882      -0.87504765
H        3.89345226       0.90747270       0.90878739
H        2.20723442      -2.06402851      -0.04336545
H       -0.23134333      -2.41257991      -0.07910788
22
Properties=species:S:1:pos:R:3 pbc="F F F"
C       -2.59520418       2.04909427       0.04336712
C       -2.10122439      -0.38129343      -0.03099675
C       -2.93586898      -1.58946532      -0.07359751
C       -0.68036758      -0.28130756      -0.01660781
C       -0.07694458       0.99441035       0.02820908
C        1.22893087       1.19159986       0.04801078
C        2.09360776       0.08967423       0.02245400
C        3.58041526       0.29368022       0.03995850
C        1.53236242      -1.19191698      -0.02420235
C        0.18267969      -1.38346112      -0.04273207
H       -2.72962288       2.62583860      -0.85439003
H       -2.74319775       2.56178440       0.97626840
H       -2.34414165      -2.53346731      -0.10237135
H       -3.57318335      -1.61208665       0.80096985
H       -3.56654626      -1.55415242      -0.95270502
H       -0.83814262       1.90731720       0.04969100
H        1.64494883       2.22618195       0.08199398
H        4.12995532      -0.66630932       0.09577738
H        3.92306757       0.82171124      -0.87508138
H        3.89215550       0.90787589       0.90853590
H        2.20726767      -2.06361776      -0.04342114
H       -0.23094668      -2.41209035      -0.07913058
22
Properties=species:S:1:pos:R:3 pbc="F F F"
C       -2.59463973       2.04869703       0.04335272
C       -2.10085186      -0.38174025      -0.03099191
C       -2.93576283      -1.58946411      -0.07360162
C       -0.67985008      -0.28136863      -0.01661716
C       -0.07660596       0.99450908       0.02822158
C        1.22930032       1.19194476       0.04796058
C        2.09394960       0.08983809       0.02245356
C        3.58011675       0.29376906       0.03996877
C        1.53248664      -1.19156380      -0.02412437
C        0.18284326      -1.38335443      -0.04270440
H       -2.72930149       2.62582040      -0.85426879
H       -2.74289171       2.56179393       0.97617842
H       -2.34469623      -2.53369894      -0.10236646
H       -3.57304159      -1.61232519       0.80086357
H       -3.56640480      -1.55440168      -0.95263657
H       -0.83802217       1.90717776       0.04970694
H        1.64500585       2.22530503       0.08209992
H        4.12891920      -0.66602773       0.09596904
H        3.92182170       0.82156854      -0.87507394
H        3.89084358       0.90828608       0.90823782
H        2.20731651      -2.06318859      -0.04347417
H       -0.23053496      -2.41157641      -0.07915354
22
Properties=species:S:1:pos:R:3 pbc="F F F"
C       -2.59387986       2.04803287       0.04332979
C       -2.10052023      -0.38202611      -0.03098603
C       -2.93565844      -1.58946859      -0.07360584
C       -0.67942529      -0.28139337      -0.01662447
C       -0.07625542       0.99463356       0.02823915
C        1.22963475       1.19223852       0.04792536
C        2.09420370       0.08996768       0.02245612
C        3.57983207       0.29387799       0.03997926
C        1.53263205      -1.19126556      -0.02406653
C        0.18306869      -1.38323314      -0.04268324
H       -2.72902021       2.62586536      -0.85419786
H       -2.74262427       2.56186176       0.97613636
H       -2.34516012      -2.53388431      -0.10236072
H       -3.57290841      -1.61256921       0.80079086
H       -3.56627171      -1.55465403      -0.95259781
H       -0.83792350       1.90696849       0.04972503
H        1.64506846       2.22441269       0.08220667
H        4.12785300      -0.66571366       0.09616059
H        3.92057139       0.82143720      -0.87503516
H        3.88952858       0.90869992       0.90790891
H        2.20737500      -2.06274454      -0.04352388
H       -0.23012024      -2.41104351      -0.07917652
22
Properties=species:S:1:pos:R:3 pbc="F F F"
C       -2.59294614       2.04714408       0.04329997
C       -2.10022212      -0.38218962      -0.03097929
C       -2.93555140      -1.58947542      -0.07361014
C       -0.67908471      -0.28138128      -0.01662990
C       -0.07591242       0.99478082       0.02826059
C        1.22993668       1.19249628       0.04790185
C        2.09439204       0.09007618       0.02246096
C        3.57955959       0.29400531       0.03998974
C        1.53279284      -1.19101140      -0.02402308
C        0.18333114      -1.38310740      -0.04266741
H       -2.72876456       2.62595763      -0.85415722
H       -2.74238034       2.56197234       0.97612166
H       -2.34554960      -2.53403073      -0.10235427
H       -3.57277953      -1.61280919       0.80074654
H       -3.56614293      -1.55490017      -0.95258369
H       -0.83785309       1.90667912       0.04974468
H        1.64513726       2.22351408       0.08231255
H        4.12677144      -0.66537639       0.09634808
H        3.91932317       0.82132140      -0.87497146
H        3.88821705       0.90911581       0.90755935
H        2.20743827      -2.06228762      -0.04357013
H       -0.22971265      -2.41049384      -0.07919937
22
Properties=species:S:1:pos:R:3 pbc="F F F"
C       -2.59185328       2.04606739       0.04326464
C       -2.09995103      -0.38226028      -0.03097195
C       -2.93543953      -1.58948129      -0.07361447
C       -0.67882306      -0.28133270      -0.01663358
C       -0.07559328       0.99494844       0.02828510
C        1.23020793       1.19272799       0.04788758
C        2.09452914       0.09017236       0.02246747
C        3.57929666       0.29414979       0.04000006
C        1.53296450      -1.19079237      -0.02399012
C        0.18361199      -1.38298217      -0.04265614
H       -2.72852093       2.62608137      -0.85413199
H       -2.74214670       2.56211090       0.97611950
H       -2.34587327      -2.53414354      -0.10234729
H       -3.57265157      -1.61303638       0.80072617
H       -3.56601528      -1.55513161      -0.95258981
H       -0.83781598       1.90630070       0.04976544
H        1.64521460       2.22261404       0.08241658
H        4.12568341      -0.66502219       0.09652924
H        3.91808089       0.82122333      -0.87488668
H        3.88691244       0.90953276       0.90719528
H        2.20750270      -2.06181834      -0.04361305
H       -0.22932035      -2.40992820      -0.07922199
22
Properties=species:S:1:pos:R:3 pbc="F F F"
C       -2.59061610       2.04484025       0.04322510
C       -2.09969891      -0.38226144      -0.03096424
C       -2.93532216      -1.58948413      -0.07361883
C       -0.67863731      -0.28124950      -0.01663566
C       -0.07531151       0.99513469       0.02831209
C        1.23045017       1.19293979       0.04788074
C        2.09462481       0.09026192       0.02247514
C        3.57904034       0.29431016       0.04001011
C        1.53314375      -1.19060126      -0.02396495
C        0.18389736      -1.38285958      -0.04264899
H       -2.72827642       2.62622112      -0.85411035
H       -2.74191126       2.56226337       0.97611831
H       -2.34613599      -2.53422595      -0.10233994
H       -3.57252332      -1.61324598       0.80072576
H       -3.56588759      -1.55534377      -0.95261241
H       -0.83781354       1.90583215       0.04978687
H        1.64530446       2.22171481       0.08251819
H        4.12459320      -0.66465525       0.09670301
H        3.91684642       0.82114283      -0.87478300
H        3.88561643       0.90994931       0.90682019
H        2.20756602      -2.06133655      -0.04365288
H       -0.22894886      -2.40934699      -0.07924427
22
Properties=species:S:1:pos:R:3 pbc="F F F"
C       -2.58925592       2.04350595       0.04318270
C       -2.09945808      -0.38221018      -0.03095639
C       -2.93519948      -1.58948388      -0.07362330
C       -0.67852605      -0.28113632      -0.01663632
C       -0.07507765       0.99533858       0.02834117
C        1.23066566       1.19313525       0.04787996
C        2.09468638       0.09034809       0.02248356
C        3.57878837       0.29448470       0.04001982
C        1.53332887      -1.19043260      -0.02394566
C        0.18417744      -1.38274062      -0.04264571
H       -2.72801992       2.62636316      -0.85408276
H       -2.74166363       2.56241737       0.97610877
H       -2.34633987      -2.53427988      -0.10233236
H       -3.57239545      -1.61343796       0.80074184
H       -3.56576057      -1.55553687      -0.95264846
H       -0.83784353       1.90527927       0.04980858
H        1.64541227       2.22081679       0.08261716
H        4.12350254      -0.66427866       0.09686917
H        3.91562107       0.82107789      -0.87466191
H        3.88433049       0.91036333       0.90643617
H        2.20762780      -2.06084233      -0.04368991
H       -0.22860072      -2.40875106      -0.07926612
22
Properties=species:S:1:pos:R:3 pbc="F F F"
C       -2.58780117       2.04211264       0.04313886
C       -2.09922235      -0.38211795      -0.03094850
C       -2.93507142      -1.58948203      -0.07362794
C       -0.67848857      -0.28100077      -0.01663582
C       -0.07489916       0.99555926       0.02837205
C        1.23085728       1.19331601       0.04788418
C        2.09471872       0.09043192       0.02249239
C        3.57853903       0.29467121       0.04002912
C        1.53351927      -1.19028226      -0.02393092
C        0.18444567      -1.38262571      -0.04264612
H       -2.72774284       2.62649634      -0.85404168
H       -2.74139576       2.56256279       0.97608351
H       -2.34648382      -2.53430598      -0.10232465
H       -3.57226909      -1.61361606       0.80077125
H       -3.56563532      -1.55571492      -0.95269543
H       -0.83790048       1.90465205       0.04983023
H        1.64554373       2.21991852       0.08271342
H        4.12241159      -0.66389498       0.09702798
H        3.91440572       0.82102526      -0.87452453
H        3.88305592       0.91077209       0.90604454
H        2.20768878      -2.06033596      -0.04372445
H       -0.22827573      -2.40814149      -0.07928749
22
Properties=species:S:1:pos:R:3 pbc="F F F"
C       -2.58628448       2.04070846       0.04309492
C       -2.09898773      -0.38199208      -0.03094062
C       -2.93493778      -1.58948117      -0.07363289
C       -0.67852428      -0.28085148      -0.01663444
C       -0.07478028       0.99579556       0.02840455
C        1.23102845       1.19348273       0.04789256
C        2.09472579       0.09051310       0.02250137
C        3.57829158       0.29486714       0.04003796
C        1.53371518      -1.19014723      -0.02391974
C        0.18469814      -1.38251511      -0.04265001
H       -2.72743994       2.62661292      -0.85398172
H       -2.74110291       2.56269277       0.97603737
H       -2.34656544      -2.53430434      -0.10231691
H       -3.57214595      -1.61378666       0.80081134
H       -3.56551356      -1.55588453      -0.95275141
H       -0.83797642       1.90396392       0.04985154
H        1.64570412       2.21901742       0.08280701
H        4.12132048      -0.66350659       0.09717988
H        3.91320162       0.82098123      -0.87437208
H        3.88179445       0.91117273       0.90564638
H        2.20775065      -2.05981826      -0.04375675
H       -0.22797170      -2.40752051      -0.07930833
22
Properties=species:S:1:pos:R:3 pbc="F F F"
C       -2.58473688       2.03933323       0.04305195
C       -2.09875263      -0.38183667      -0.03093275
C       -2.93479868      -1.58948442      -0.07363827
C       -0.67863179      -0.28069603      -0.01663239
C       -0.07472350       0.99604571       0.02843851
C        1.23118290       1.19363588       0.04790441
C        2.09471180       0.09059094       0.02251030
C        3.57804658       0.29506996       0.04004629
C        1.53391728      -1.19002529      -0.02391140
C        0.18493309      -1.38240924      -0.04265710
H       -2.72710991       2.62670903      -0.85389974
H       -2.74078425       2.56280412       0.97596757
H       -2.34658284      -2.53427331      -0.10230914
H       -3.57202826      -1.61395671       0.80086011
H       -3.56539744      -1.55605288      -0.95281516
H       -0.83806370       1.90322766       0.04987224
H        1.64589767       2.21811094       0.08289801
H        4.12023046      -0.66311583       0.09732541
H        3.91201090       0.82094244      -0.87420597
H        3.88054862       0.91156288       0.90524277
H        2.20781596      -2.05929075      -0.04378706
H       -0.22768538      -2.40689166      -0.07932860
22
Properties=species:S:1:pos:R:3 pbc="F F F"
C       -2.58318183       2.03801116       0.04301056
C       -2.09851666      -0.38165403      -0.03092490
C       -2.93465398      -1.58949458      -0.07364422
C       -0.67880815      -0.28054086      -0.01662986
C       -0.07473066       0.99630622       0.02847370
C        1.23132403       1.19377562       0.04791911
C        2.09468098       0.09066451       0.02251900
C        3.57780493       0.29527708       0.04005403
C        1.53412610      -1.18991473      -0.02390536
C        0.18515058      -1.38230878      -0.04266702
H       -2.72675451       2.62678351      -0.85379454
H       -2.74044200       2.56289619       0.97587340
H       -2.34653654      -2.53419735      -0.10230090
H       -3.57191755      -1.61413209       0.80091597
H       -3.56528847      -1.55622605      -0.95288577
H       -0.83815713       1.90245035       0.04989210
H        1.64612677       2.21719669       0.08298649
H        4.11914328      -0.66272503       0.09746508
H        3.91083564       0.82090582      -0.87402763
H        3.87932092       0.91194050       0.90483466
H        2.20788726      -2.05875513      -0.04381558
H       -0.22741299      -2.40625903      -0.07934832
22
Properties=species:S:1:pos:R:3 pbc="F F F"
C       -2.58163331       2.03675132       0.04297093
C       -2.09828049      -0.38144532      -0.03091704
C       -2.93450376      -1.58951310      -0.07365083
C       -0.67904944      -0.28039039      -0.01662698
C       -0.07480393       0.99657286       0.02850986
C        1.23145477       1.19390312       0.04793615
C        2.09463836       0.09073414       0.02252735
C        3.57756781       0.29548696       0.04006114
C        1.53434194      -1.18981344      -0.02390120
C        0.18535168      -1.38221411      -0.04267948
H       -2.72637842       2.62683888      -0.85366686
H       -2.74008130       2.56297187       0.97575628
H       -2.34642786      -2.53406730      -0.10229196
H       -3.57181526      -1.61431630       0.80097784
H       -3.56518807      -1.55640774      -0.95296261
H       -0.83825477       1.90163394       0.04991099
H        1.64639200       2.21627425       0.08307253
H        4.11806139      -0.66233566       0.09759940
H        3.90967817       0.82086971      -0.87383854
H        3.87811442       0.91230488       0.90442308
H        2.20796689      -2.05821238      -0.04384249
H       -0.22715083      -2.40562618      -0.07936755
22
Properties=species:S:1:pos:R:3 pbc="F F F"
C       -2.58009373       2.03554868       0.04293285
C       -2.09804524      -0.38121149      -0.03090913
C       -2.93434838      -1.58954005      -0.07365816
C       -0.67935190      -0.28024702      -0.01662384
C       -0.07494817       0.99684171       0.02854684
C        1.23157761       1.19402068       0.04795509
C        2.09458825       0.09080095       0.02253528
C        3.57733673       0.29569919       0.04006760
C        1.53456499      -1.18971886      -0.02389856
C        0.18553813      -1.38212517      -0.04269420
H       -2.72598828       2.62688079      -0.85351903
H       -2.73970894       2.56303684       0.97561930
H       -2.34625848      -2.53388182      -0.10228232
H       -3.57172282      -1.61451070       0.80104505
H       -3.56509765      -1.55659946      -0.95304535
H       -0.83835740       1.90077634       0.04992886
H        1.64669261       2.21534543       0.08315626
H        4.11698800      -0.66194832       0.09772888
H        3.90854115       0.82083383      -0.87364017
H        3.87693205       0.91265675       0.90400898
H        2.20805701      -2.05766259      -0.04386790
H       -0.22689552      -2.40499570      -0.07938634
22
Properties=species:S:1:pos:R:3 pbc="F F F"
C       -2.57856250       2.03439561       0.04289608
C       -2.09781173      -0.38095392      -0.03090112
C       -2.93418783      -1.58957498      -0.07366620
C       -0.67971252      -0.28011170      -0.01662048
C       -0.07517041       0.99710856       0.02858456
C        1.23169484       1.19413074       0.04797562
C        2.09453426       0.09086616       0.02254281
C        3.57711303       0.29591356       0.04007343
C        1.53479555      -1.18962864      -0.02389716
C        0.18571221      -1.38204204      -0.04271092
H       -2.72559047       2.62691561      -0.85335417
H       -2.73933087       2.56309707       0.97546596
H       -2.34603060      -2.53364049      -0.10227197
H       -3.57164096      -1.61471557       0.80111716
H       -3.56501794      -1.55680165      -0.95313371
H       -0.83846670       1.89987196       0.04994572
H        1.64702707       2.21441295       0.08323780
H        4.11592650      -0.66156361       0.09785402
H        3.90742711       0.82079821      -0.87343389
H        3.87577640       0.91299717       0.90359316
H        2.20815948      -2.05710554      -0.04389193
H       -0.22664392      -2.40436945      -0.07940477
22
Properties=species:S:1:pos:R:3 pbc="F F F"
C       -2.57703722       2.03328407       0.04286040
C       -2.09758059      -0.38067451      -0.03089294
C       -2.93402215      -1.58961740      -0.07367494
C       -0.68012964      -0.27998413      -0.01661694
C       -0.07547930       0.99736930       0.02862293
C        1.23180863       1.19423588       0.04799744
C        2.09447956       0.09093098       0.02254998
C        3.57689813       0.29613001       0.04007865
C        1.53503401      -1.18954079      -0.02389679
C        0.18587631      -1.38196498      -0.04272946
H       -2.72519024       2.62694940      -0.85317538
H       -2.73895181       2.56315809       0.97529960
H       -2.34574703      -2.53334347      -0.10226091
H       -3.57157032      -1.61493085       0.80119392
H       -3.56494959      -1.55701439      -0.95322752
H       -0.83858386       1.89891399       0.04996159
H        1.64739374       2.21348014       0.08331729
H        4.11488045      -0.66118219       0.09797532
H        3.90633848       0.82076309      -0.87322100
H        3.87464997       0.91332736       0.90317640
H        2.20827586      -2.05654088      -0.04391469
H       -0.22639338      -2.40374872      -0.07942295
22
Properties=species:S:1:pos:R:3 pbc="F F F"
C       -2.57551562       2.03220786       0.04282568
C       -2.09735219      -0.38037679      -0.03088459
C       -2.93385137      -1.58966689      -0.07368438
C       -0.68060284      -0.27986300      -0.01661323
C       -0.07588407       0.99761985       0.02866189
C        1.23192099       1.19433864       0.04802033
C        2.09442672       0.09099664       0.02255686
C        3.57669317       0.29634850       0.04008331
C        1.53528074      -1.18945360      -0.02389728
C        0.18603258      -1.38189429      -0.04274965
H       -2.72479121       2.62698702      -0.85298521
H       -2.73857491       2.56322424       0.97512289
H       -2.34541072      -2.53299121      -0.10224911
H       -3.57151151      -1.61515637       0.80127519
H       -3.56489324      -1.55723763      -0.95332672
H       -0.83870781       1.89789632       0.04997651
H        1.64779098       2.21255052       0.08339486
H        4.11385304      -0.66080478       0.09809320
H        3.90527715       0.82072874      -0.87300267
H        3.87355483       0.91364852       0.90275942
H        2.20840721      -2.05596817      -0.04393628
H       -0.22614192      -2.40313411      -0.07944101
22
Properties=species:S:1:pos:R:3 pbc="F F F"
C       -2.57399716       2.03116353       0.04279189
C       -2.09712696      -0.38006480      -0.03087607
C       -2.93367579      -1.58972313      -0.07369448
C       -0.68113266      -0.27974634      -0.01660933
C       -0.07638921       0.99785589       0.02870113
C        1.23203356       1.19444143       0.04804411
C        2.09437748       0.09106416       0.02256355
C        3.57649883       0.29656894       0.04008745
C        1.53553569      -1.18936562      -0.02389848
C        0.18618254      -1.38183026      -0.04277136
H       -2.72439564       2.62703183      -0.85278534
H       -2.73820208       2.56329853       0.97493758
H       -2.34502492      -2.53258466      -0.10223653
H       -3.57146547      -1.61539206       0.80136087
H       -3.56484987      -1.55747142      -0.95343122
H       -0.83883400       1.89681445       0.04999049
H        1.64821700       2.21162759       0.08347063
H        4.11284671      -0.66043220       0.09820803
H        3.90424427       0.82069536      -0.87277991
H        3.87249229       0.91396163       0.90234285
H        2.20855385      -2.05538705      -0.04395681
H       -0.22588848      -2.40252583      -0.07945905
22
Properties=species:S:1:pos:R:3 pbc="F F F"
C       -2.57248183       2.03014912       0.04275905
C       -2.09690555      -0.37974115      -0.03086740
C       -2.93349594      -1.58978593      -0.07370519
C       -0.68171989      -0.27963181      -0.01660523
C       -0.07699980       0.99807439       0.02874048
C        1.23214771       1.19454642       0.04806860
C        2.09433298       0.09113431       0.02257014
C        3.57631543       0.29679108       0.04009114
C        1.53579850      -1.18927570      -0.02390031
C        0.18632711      -1.38177328      -0.04279450
H       -2.72400448       2.62708566      -0.85257632
H       -2.73783402       2.56338256       0.97474419
H       -2.34459298      -2.53212525      -0.10222315
H       -3.57143334      -1.61563795       0.80145086
H       -3.56482066      -1.55771591      -0.95354093
H       -0.83895285       1.89566523       0.05000351
H        1.64866990       2.21071467       0.08354471
H        4.11186334      -0.66006546       0.09832015
H        3.90324044       0.82066296      -0.87255360
H        3.87146318       0.91426740       0.90192737
H        2.20871551      -2.05479739      -0.04397637
H       -0.22563277      -2.40192396      -0.07947719
22
Properties=species:S:1:pos:R:3 pbc="F F F"
C       -2.57097464       2.02916804       0.04272733
C       -2.09668897      -0.37940791      -0.03085857
C       -2.93331253      -1.58985525      -0.07371646
C       -0.68236564      -0.27951722      -0.01660090
C       -0.07771958       0.99827438       0.02877973
C        1.23226465       1.19465535       0.04809366
C        2.09429401       0.09120753       0.02257673
C        3.57614314       0.29701438       0.04009445
C        1.53606864      -1.18918318      -0.02390266
C        0.18646675      -1.38172402      -0.04281898
H       -2.72361773       2.62714901      -0.85235758
H       -2.73747059       2.56347675       0.97454202
H       -2.34411829      -2.53161518      -0.10220895
H       -3.57141640      -1.61589438       0.80154507
H       -3.56480695      -1.55797151      -0.95365576
H       -0.83904916       1.89444574       0.05001546
H        1.64914771       2.20981476       0.08361718
H        4.11090462      -0.65970593       0.09842982
H        3.90226619       0.82063126      -0.87232466
H        3.87046825       0.91456611       0.90151370
H        2.20889164      -2.05419972      -0.04399505
H       -0.22537511      -2.40132899      -0.07949557
22
Properties=species:S:1:pos:R:3 pbc="F F F"
C       -2.56947970       2.02822318       0.04269685
C       -2.09647889      -0.37906505      -0.03084956
C       -2.93312629      -1.58993101      -0.07372820
C       -0.68307191      -0.27940067      -0.01659632
C       -0.07855190       0.99845868       0.02881876
C        1.23238513       1.19476963       0.04811917
C        2.09426075       0.09128397       0.02258341
C        3.57598153       0.29723815       0.04009744
C        1.53634516      -1.18908751      -0.02390549
C        0.18660132      -1.38168320      -0.04284477
H       -2.72323471       2.62722142      -0.85212753
H       -2.73711105       2.56358073       0.97432925
H       -2.34360425      -2.53105693      -0.10219388
H       -3.57141589      -1.61616159       0.80164335
H       -3.56481005      -1.55823856      -0.95377550
H       -0.83910303       1.89315192       0.05002615
H        1.64964803       2.20893057       0.08368813
H        4.10997164      -0.65935501       0.09853725
H        3.90132169       0.82059982      -0.87209390
H        3.86950785       0.91485779       0.90110259
H        2.20908110      -2.05359476      -0.04401292
H       -0.22511650      -2.40074157      -0.07951428
22
Properties=species:S:1:pos:R:3 pbc="F F F"
C       -2.56802021       2.02732690       0.04266804
C       -2.09628148      -0.37871558      -0.03084045
C       -2.93294125      -1.59001174      -0.07374010
C       -0.68382713      -0.27928291      -0.01659155
C       -0.07948364       0.99863177       0.02885692
C        1.23250730       1.19488811       0.04814462
C        2.09423319       0.09136214       0.02259016
C        3.57583214       0.29745783       0.04010016
C        1.53662189      -1.18899002      -0.02390864
C        0.18672806      -1.38165206      -0.04287133
H       -2.72286098       2.62730043      -0.85188817
H       -2.73676052       2.56369161       0.97410726
H       -2.34306414      -2.53046427      -0.10217821
H       -3.57143254      -1.61643498       0.80174372
H       -3.56483067      -1.55851249      -0.95389773
H       -0.83909280       1.89180660       0.05003520
H        1.65015902       2.20807851       0.08375652
H        4.10907962      -0.65901962       0.09864091
H        3.90042162       0.82056858      -0.87186595
H        3.86859668       0.91513756       0.90070145
H        2.20927875      -2.05299404      -0.04402977
H       -0.22486292      -2.40017233      -0.07953307
22
Properties=species:S:1:pos:R:3 pbc="F F F"
C       -2.56654687       2.02644822       0.04263991
C       -2.09609331      -0.37834701      -0.03083084
C       -2.93275206      -1.59010076      -0.07375247
C       -0.68465944      -0.27915953      -0.01658642
C       -0.08055394       0.99881074       0.02889564
C        1.23263557       1.19501536       0.04817081
C        2.09421014       0.09144416       0.02259730
C        3.57568983       0.29767964       0.04010278
C        1.53690697      -1.18888752      -0.02391216
C        0.18685037      -1.38163115      -0.04289954
H       -2.72248337       2.62738771      -0.85162868
H       -2.73640655       2.56381229       0.97386540
H       -2.34248264      -2.52982021      -0.10216136
H       -3.57146856      -1.61672453       0.80184947
H       -3.56487120      -1.55880337      -0.95402637
H       -0.83899369       1.89036754       0.05004264
H        1.65069548       2.20723192       0.08382475
H        4.10819977      -0.65869025       0.09874442
H        3.89953663       0.82053568      -0.87163394
H        3.86770467       0.91541423       0.90029753
H        2.20949000      -2.05237920      -0.04404621
H       -0.22460780      -2.39960395      -0.07955266
22
Properties=species:S:1:pos:R:3 pbc="F F F"
C       -2.56507644       2.02559489       0.04261268
C       -2.09592081      -0.37796459      -0.03082085
C       -2.93256251      -1.59019595      -0.07376498
C       -0.68555672      -0.27903195      -0.01658102
C       -0.08175153       0.99900779       0.02893452
C        1.23276740       1.19515041       0.04819726
C        2.09419106       0.09152874       0.02260480
C        3.57555659       0.29789961       0.04010536
C        1.53719392      -1.18878095      -0.02391592
C        0.18696488      -1.38162160      -0.04292892
H       -2.72210769       2.62748148      -0.85135048
H       -2.73605449       2.56394062       0.97360435
H       -2.34187246      -2.52913758      -0.10214357
H       -3.57152475      -1.61702481       0.80195868
H       -3.56493240      -1.55910580      -0.95415900
H       -0.83878727       1.88884786       0.05004809
H        1.65124529       2.20640782       0.08389177
H        4.10734732      -0.65837299       0.09884615
H        3.89868210       0.82050180      -0.87140246
H        3.86684706       0.91568330       0.89989832
H        2.20970933      -2.05176157      -0.04406200
H       -0.22435790      -2.39904653      -0.07957279
22
Properties=species:S:1:pos:R:3 pbc="F F F"
C       -2.56359928       2.02475872       0.04258604
C       -2.09576712      -0.37756749      -0.03081039
C       -2.93237336      -1.59029633      -0.07377747
C       -0.68651865      -0.27890031      -0.01657535
C       -0.08307718       0.99923818       0.02897383
C        1.23290216       1.19529449       0.04822395
C        2.09417502       0.09161603       0.02261272
C        3.57543229       0.29811784       0.04010800
C        1.53748117      -1.18866959      -0.02391985
C        0.18707035      -1.38162401      -0.04295943
H       -2.72173377       2.62758203      -0.85105125
H       -2.73570408       2.56407699       0.97332133
H       -2.34123719      -2.52841917      -0.10212483
H       -3.57160235      -1.61733479       0.80207119
H       -3.56501552      -1.55941872      -0.95429533
H       -0.83846198       1.88723433       0.05005127
H        1.65180504       2.20560920       0.08395768
H        4.10652255      -0.65806769       0.09894618
H        3.89785877       0.82046761      -0.87117230
H        3.86602438       0.91594545       0.89950469
H        2.20993460      -2.05114233      -0.04407714
H       -0.22411584      -2.39850048      -0.07959353
22
Properties=species:S:1:pos:R:3 pbc="F F F"
C       -2.56210504       2.02393169       0.04255966
C       -2.09563488      -0.37715432      -0.03079940
C       -2.93218507      -1.59040086      -0.07378983
C       -0.68754382      -0.27876557      -0.01656947
C       -0.08452443       0.99951254       0.02901375
C        1.23303913       1.19544887       0.04825089
C        2.09416106       0.09170633       0.02262110
C        3.57531672       0.29833470       0.04011080
C        1.53776722      -1.18855265      -0.02392389
C        0.18716563      -1.38163905      -0.04299103
H       -2.72136132       2.62768996      -0.85072899
H       -2.73535487       2.56422207       0.97301397
H       -2.34058016      -2.52766759      -0.10210512
H       -3.57170233      -1.61765300       0.80218679
H       -3.56512148      -1.55974068      -0.95443501
H       -0.83801769       1.88551481       0.05005184
H        1.65237126       2.20483928       0.08402258
H        4.10572563      -0.65777378       0.09904461
H        3.89706764       0.82043417      -0.87094428
H        3.86523741       0.91620163       0.89911762
H        2.21016364      -2.05052252      -0.04409167
H       -0.22388423      -2.39796600      -0.07961490
22
Properties=species:S:1:pos:R:3 pbc="F F F"
C       -2.56058356       2.02310653       0.04253322
C       -2.09552585      -0.37672342      -0.03078775
C       -2.93199778      -1.59050875      -0.07380190
C       -0.68863000      -0.27862965      -0.01656345
C       -0.08607640       0.99983249       0.02905425
C        1.23317762       1.19561461       0.04827808
C        2.09414838       0.09179987       0.02263001
C        3.57520987       0.29855053       0.04011385
C        1.53805078      -1.18842945      -0.02392799
C        0.18724977      -1.38166781      -0.04302371
H       -2.72098967       2.62780591      -0.85038212
H       -2.73500603       2.56437652       0.97268041
H       -2.33990436      -2.52688549      -0.10208443
H       -3.57182528      -1.61797797       0.80230526
H       -3.56525084      -1.56007014      -0.95457766
H       -0.83746985       1.88368660       0.05004948
H        1.65294055       2.20410120       0.08408661
H        4.10495668      -0.65749054       0.09914150
H        3.89630994       0.82040272      -0.87071925
H        3.86448713       0.91645294       0.89873809
H        2.21039442      -2.04990323      -0.04410558
H       -0.22366552      -2.39744346      -0.07963694
22
Properties=species:S:1:pos:R:3 pbc="F F F"
C       -2.55902609       2.02227765       0.04250644
C       -2.09544033      -0.37627302      -0.03077533
C       -2.93181106      -1.59061937      -0.07381357
C       -0.68977438      -0.27849538      -0.01655737
C       -0.08770752       1.00019212       0.02909514
C        1.23331702       1.19579248       0.04830557
C        2.09413629       0.09189678       0.02263952
C        3.57511196       0.29876558       0.04011724
C        1.53833087      -1.18829952      -0.02393206
C        0.18732219      -1.38171205      -0.04305744
H       -2.72061733       2.62793004      -0.85000932
H       -2.73465583       2.56454054       0.97231917
H       -2.33921224      -2.52607552      -0.10206275
H       -3.57197118      -1.61830817       0.80242627
H       -3.56540348      -1.56040558      -0.95472283
H       -0.83684899       1.88175661       0.05004395
H        1.65350964       2.20339785       0.08414987
H        4.10421574      -0.65721721       0.09923693
H        3.89558699       0.82037455      -0.87049804
H        3.86377451       0.91670048       0.89836708
H        2.21062507      -2.04928552      -0.04411884
H       -0.22346186      -2.39693333      -0.07965964
22
Properties=species:S:1:pos:R:3 pbc="F F F"
C       -2.55742674       2.02144203       0.04247910
C       -2.09537768      -0.37580133      -0.03076202
C       -2.93162436      -1.59073275      -0.07382472
C       -0.69097395      -0.27836659      -0.01655135
C       -0.08938843       1.00058419       0.02913616
C        1.23345706       1.19598287       0.04833337
C        2.09412460       0.09199692       0.02264970
C        3.57502383       0.29897980       0.04012105
C        1.53860702      -1.18816301      -0.02393609
C        0.18738277      -1.38177494      -0.04309226
H       -2.72024214       2.62806214      -0.84960965
H       -2.73430188       2.56471387       0.97192924
H       -2.33850609      -2.52524095      -0.10204009
H       -3.57213987      -1.61864261       0.80254957
H       -3.56557914      -1.56074591      -0.95487014
H       -0.83619479       1.87973958       0.05003520
H        1.65407555       2.20273186       0.08421247
H        4.10350348      -0.65695344       0.09933093
H        3.89490060       0.82035083      -0.87028164
H        3.86310096       0.91694525       0.89800567
H        2.21085427      -2.04867094      -0.04413146
H       -0.22327507      -2.39643686      -0.07968303
22
Properties=species:S:1:pos:R:3 pbc="F F F"
C       -2.55578316       2.02059961       0.04245105
C       -2.09533646      -0.37530655      -0.03074773
C       -2.93143688      -1.59084921      -0.07383526
C       -0.69222596      -0.27824772      -0.01654554
C       -0.09108954       1.00100053       0.02917703
C        1.23359752       1.19618573       0.04836149
C        2.09411328       0.09210000       0.02266062
C        3.57494632       0.29919287       0.04012532
C        1.53887903      -1.18802042      -0.02394003
C        0.18743174      -1.38186084      -0.04312825
H       -2.71986100       2.62820125      -0.84918233
H       -2.73394082       2.56489555       0.97150985
H       -2.33778797      -2.52438528      -0.10201647
H       -3.57233086      -1.61898064       0.80267485
H       -3.56577720      -1.56109043      -0.95501924
H       -0.83554808       1.87765525       0.05002335
H        1.65463538       2.20210547       0.08427449
H        4.10282050      -0.65669905       0.09942355
H        3.89425232       0.82033263      -0.87007104
H        3.86246761       0.91718809       0.89765486
H        2.21108093      -2.04806119      -0.04414343
H       -0.22310670      -2.39595568      -0.07970713
22
Properties=species:S:1:pos:R:3 pbc="F F F"
C       -2.55409751       2.01975390       0.04242226
C       -2.09531495      -0.37478682      -0.03073237
C       -2.93124783      -1.59096935      -0.07384511
C       -0.69352807      -0.27814341      -0.01654010
C       -0.09278342       1.00143213       0.02921742
C        1.23373821       1.19640078       0.04838995
C        2.09410243       0.09220571       0.02267234
C        3.57488025       0.29940443       0.04013011
C        1.53914693      -1.18787252      -0.02394389
C        0.18746953      -1.38197476      -0.04316549
H       -2.71947004       2.62834596      -0.84872657
H       -2.73356846       2.56508414       0.97106023
H       -2.33705992      -2.52351210      -0.10199195
H       -3.57254363      -1.61932197       0.80280185
H       -3.56599700      -1.56143879      -0.95516987
H       -0.83494487       1.87552477       0.05000866
H        1.65518634       2.20152074       0.08433601
H        4.10216739      -0.65645395       0.09951479
H        3.89364335       0.82032098      -0.86986718
H        3.86187524       0.91742983       0.89731558
H        2.21130416      -2.04745796      -0.04415473
H       -0.22295812      -2.39549173      -0.07973194
22
Properties=species:S:1:pos:R:3 pbc="F F F"
C       -2.55237656       2.01891186       0.04239288
C       -2.09531142      -0.37424035      -0.03071583
C       -2.93105646      -1.59109399      -0.07385424
C       -0.69487827      -0.27805832      -0.01653520
C       -0.09444749       1.00187266       0.02925703
C        1.23387903       1.19662747       0.04841876
C        2.09409234       0.09231378       0.02268492
C        3.57482636       0.29961394       0.04013541
C        1.53941097      -1.18772035      -0.02394767
C        0.18749683      -1.38212187      -0.04320409
H       -2.71906467       2.62849441      -0.84824139
H       -2.73317989       2.56527775       0.97057941
H       -2.33632400      -2.52262513      -0.10196656
H       -3.57277762      -1.61966677       0.80293036
H       -3.56623781      -1.56179109      -0.95532185
H       -0.83441338       1.87336665       0.04999151
H        1.65572577       2.20097950       0.08439711
H        4.10154464      -0.65621808       0.09960465
H        3.89307449       0.82031684      -0.86967100
H        3.86132420       0.91767117       0.89698867
H        2.21152339      -2.04686290      -0.04416537
H       -0.22283044      -2.39504717      -0.07975751
22
Properties=species:S:1:pos:R:3 pbc="F F F"
C       -2.55062978       2.01808240       0.04236314
C       -2.09532427      -0.37366523      -0.03069800
C       -2.93086204      -1.59122396      -0.07386260
C       -0.69627466      -0.27799666      -0.01653100
C       -0.09606464       1.00231775       0.02929556
C        1.23401992       1.19686530       0.04844797
C        2.09408328       0.09242409       0.02269840
C        3.57478505       0.29982092       0.04014123
C        1.53967154      -1.18756490      -0.02395136
C        0.18751453      -1.38230707      -0.04324417
H       -2.71863972       2.62864462      -0.84772536
H       -2.73276954       2.56547440       0.97006583
H       -2.33558214      -2.52172778      -0.10194035
H       -3.57303210      -1.62001545       0.80306022
H       -3.56649871      -1.56214766      -0.95547512
H       -0.83397388       1.87119421       0.04997230
H        1.65625132       2.20048329       0.08445786
H        4.10095229      -0.65599116       0.09969310
H        3.89254579       0.82032119      -0.86948326
H        3.86081412       0.91791287       0.89667478
H        2.21173817      -2.04627718      -0.04417536
H       -0.22272453      -2.39462397      -0.07978382
22
Properties=species:S:1:pos:R:3 pbc="F F F"
C       -2.54886698       2.01727426       0.04233338
C       -2.09535221      -0.37305958      -0.03067874
C       -2.93066408      -1.59136007      -0.07387017
C       -0.69771544      -0.27796181      -0.01652766
C       -0.09762098       1.00276255       0.02933270
C        1.23416079       1.19711406       0.04847760
C        2.09407529       0.09253659       0.02271282
C        3.57475660       0.30002508       0.04014756
C        1.53992907      -1.18740705      -0.02395500
C        0.18752362      -1.38253497      -0.04328584
H       -2.71819006       2.62879504      -0.84717641
H       -2.73233188       2.56567256       0.96951733
H       -2.33483638      -2.52082304      -0.10191338
H       -3.57330639      -1.62036856       0.80319139
H       -3.56677887      -1.56250899      -0.95562970
H       -0.83364056       1.86901743       0.04995145
H        1.65676099       2.20003348       0.08451834
H        4.10038994      -0.65577259       0.09978012
H        3.89205652       0.82033511      -0.86930461
H        3.86034391       0.91815578       0.89637440
H        2.21194818      -2.04570151      -0.04418468
H       -0.22264108      -2.39422378      -0.07981088
22
Properties=species:S:1:pos:R:3 pbc="F F F"
C       -2.54709961       2.01649649       0.04230402
C       -2.09539415      -0.37242193      -0.03065789
C       -2.93046250      -1.59150345      -0.07387699
C       -0.69919863      -0.27795653      -0.01652533
C       -0.09910499       1.00320174       0.02936810
C        1.23430176       1.19737362       0.04850771
C        2.09406845       0.09265114       0.02272823
C        3.57474153       0.30022609       0.04015440
C        1.54018416      -1.18724783      -0.02395858
C        0.18752533      -1.38280996      -0.04332920
H       -2.71771110       2.62894483      -0.84659184
H       -2.73186185       2.56587145       0.96893104
H       -2.33408879      -2.51991389      -0.10188571
H       -3.57359996      -1.62072708       0.80332393
H       -3.56707756      -1.56287595      -0.95578580
H       -0.83342335       1.86684676       0.04992937
H        1.65725349       2.19963109       0.08457863
H        4.09985710      -0.65556179       0.09986567
H        3.89160553       0.82035946      -0.86913561
H        3.85991215       0.91840053       0.89608791
H        2.21215350      -2.04513651      -0.04419336
H       -0.22258052      -2.39384828      -0.07983870
22
Properties=species:S:1:pos:R:3 pbc="F F F"
C       -2.54533425       2.01575437       0.04227543
C       -2.09544857      -0.37175160      -0.03063530
C       -2.93025716      -1.59165508      -0.07388306
C       -0.70072207      -0.27798258      -0.01652413
C       -0.10050829       1.00363096       0.02940148
C        1.23444263       1.19764395       0.04853834
C        2.09406227       0.09276762       0.02274467
C        3.57473958       0.30042369       0.04016173
C        1.54043700      -1.18708795      -0.02396212
C        0.18752081      -1.38313543      -0.04337431
H       -2.71719880       2.62909373      -0.84596809
H       -2.73135491       2.56607094       0.96830324
H       -2.33334109      -2.51900253      -0.10185739
H       -3.57391173      -1.62109176       0.80345786
H       -3.56739350      -1.56324925      -0.95594357
H       -0.83332879       1.86469075       0.04990645
H        1.65772775       2.19927646       0.08463883
H        4.09935203      -0.65535796       0.09994970
H        3.89119025       0.82039473      -0.86897650
H        3.85951608       0.91864749       0.89581539
H        2.21235388      -2.04458208      -0.04420141
H       -0.22254313      -2.39349845      -0.07986724
22
Properties=species:S:1:pos:R:3 pbc="F F F"
C       -2.54357339       2.01505125       0.04224795
C       -2.09551359      -0.37104902      -0.03061082
C       -2.93004832      -1.59181613      -0.07388843
C       -0.70228348      -0.27804101      -0.01652416
C       -0.10182613       1.00404783       0.02943261
C        1.23458319       1.19792522       0.04856956
C        2.09405620       0.09288589       0.02276215
C        3.57475049       0.30061766       0.04016954
C        1.54068778      -1.18692813      -0.02396565
C        0.18751117      -1.38351418      -0.04342120
H       -2.71665045       2.62924288      -0.84530097
H       -2.73080783       2.56627232       0.96762955
H       -2.33259491      -2.51809086      -0.10182846
H       -3.57424072      -1.62146350       0.80359335
H       -3.56772554      -1.56362970      -0.95610328
H       -0.83336099       1.86255548       0.04988301
H        1.65818335       2.19896962       0.08469902
H        4.09887266      -0.65516036       0.10003216
H        3.89080762       0.82044106      -0.86882742
H        3.85915261       0.91889673       0.89555682
H        2.21254930      -2.04403798      -0.04420883
H       -0.22252904      -2.39317508      -0.07989649
22
Properties=species:S:1:pos:R:3 pbc="F F F"
C       -2.54181594       2.01438894       0.04222189
C       -2.09558649      -0.37031567      -0.03058431
C       -2.92983622      -1.59198808      -0.07389316
C       -0.70388028      -0.27813228      -0.01652555
C       -0.10305737       1.00445181       0.02946130
C        1.23472322       1.19821778       0.04860143
C        2.09404942       0.09300578       0.02278070
C        3.57477361       0.30080770       0.04017779
C        1.54093663      -1.18676901      -0.02396918
C        0.18749750      -1.38394817      -0.04346987
H       -2.71606462       2.62939463      -0.84458582
H       -2.73021863       2.56647817       0.96690519
H       -2.33185137      -2.51718025      -0.10179895
H       -3.57458566      -1.62184309       0.80373057
H       -3.56807223      -1.56401805      -0.95626522
H       -0.83352203       1.86044423       0.04985926
H        1.65862043       2.19871006       0.08475932
H        4.09841630      -0.65496841       0.10011300
H        3.89045401       0.82049813      -0.86868835
H        3.85881812       0.91914795       0.89531202
H        2.21273972      -2.04350366      -0.04421565
H       -0.22253812      -2.39287852      -0.07992641
22
Properties=species:S:1:pos:R:3 pbc="F F F"
C       -2.54006531       2.01376982       0.04219755
C       -2.09566351      -0.36955378      -0.03055568
C       -2.92962097      -1.59217284      -0.07389733
C       -0.70550913      -0.27825662      -0.01652838
C       -0.10420362       1.00484363       0.02948743
C        1.23486276       1.19852211       0.04863405
C        2.09404137       0.09312701       0.02280030
C        3.57480851       0.30099337       0.04018648
C        1.54118413      -1.18661136      -0.02397276
C        0.18748120      -1.38443867      -0.04352032
H       -2.71544115       2.62955268      -0.84381784
H       -2.72958660       2.56669249       0.96612528
H       -2.33111085      -2.51627174      -0.10176889
H       -3.57494481      -1.62223135       0.80386982
H       -3.56843165      -1.56441505      -0.95642975
H       -0.83381194       1.85835734       0.04983534
H        1.65903997       2.19849672       0.08481980
H        4.09798051      -0.65478186       0.10019221
H        3.89012595       0.82056515      -0.86855925
H        3.85850931       0.91940051       0.89508079
H        2.21292560      -2.04297854      -0.04422190
H       -0.22256977      -2.39260904      -0.07995697
22
Properties=species:S:1:pos:R:3 pbc="F F F"
C       -2.53833721       2.01319988       0.04217533
C       -2.09573914      -0.36876627      -0.03052484
C       -2.92940186      -1.59237232      -0.07390100
C       -0.70716554      -0.27841436      -0.01653276
C       -0.10526796       1.00522435       0.02951086
C        1.23500237       1.19883858       0.04866750
C        2.09403180       0.09324908       0.02282097
C        3.57485487       0.30117388       0.04019556
C        1.54143147      -1.18645612      -0.02397646
C        0.18746424      -1.38498627      -0.04357250
H       -2.71478041       2.62972146      -0.84299230
H       -2.72891164       2.56692003       0.96528511
H       -2.33037231      -2.51536579      -0.10173829
H       -3.57531517      -1.62262895       0.80401140
H       -3.56880065      -1.56482134      -0.95659724
H       -0.83422837       1.85629230       0.04981128
H        1.65944382       2.19832751       0.08488056
H        4.09756307      -0.65460091       0.10026975
H        3.88982024       0.82064069      -0.86844001
H        3.85822316       0.91965324       0.89486287
H        2.21310787      -2.04246200      -0.04422762
H       -0.22262266      -2.39236667      -0.07998817
22
Properties=species:S:1:pos:R:3 pbc="F F F"
C       -2.53665269       2.01268767       0.04215559
C       -2.09580687      -0.36795696      -0.03049177
C       -2.92917821      -1.59258879      -0.07390427
C       -0.70884459      -0.27860623      -0.01653880
C       -0.10625400       1.00559501       0.02953146
C        1.23514272       1.19916750       0.04870185
C        2.09402070       0.09337127       0.02284271
C        3.57491275       0.30134824       0.04020498
C        1.54168033      -1.18630456      -0.02398036
C        0.18744883      -1.38559104      -0.04362636
H       -2.71408425       2.62990639      -0.84210504
H       -2.72819524       2.56716661       0.96438068
H       -2.32963419      -2.51446281      -0.10170717
H       -3.57569333      -1.62303644       0.80415573
H       -3.56917568      -1.56523750      -0.95676814
H       -0.83476710       1.85424590       0.04978705
H        1.65983439       2.19819991       0.08494168
H        4.09716236      -0.65442620       0.10034562
H        3.88953418       0.82072291      -0.86833063
H        3.85795720       0.91990464       0.89465804
H        2.21328789      -2.04195374      -0.04423283
H       -0.22269522      -2.39215176      -0.08002000
22
Properties=species:S:1:pos:R:3 pbc="F F F"
C       -2.53502955       2.01224274       0.04213867
C       -2.09585949      -0.36713068      -0.03045651
C       -2.92894932      -1.59282441      -0.07390721
C       -0.71054152      -0.27883346      -0.01654662
C       -0.10716545       1.00595619       0.02954908
C        1.23528403       1.19950907       0.04873718
C        2.09400760       0.09349266       0.02286548
C        3.57498186       0.30151526       0.04021470
C        1.54193217      -1.18615807      -0.02398456
C        0.18743693      -1.38625211      -0.04368182
H       -2.71335589       2.63011342      -0.84115260
H       -2.72744040       2.56743861       0.96340890
H       -2.32889460      -2.51356281      -0.10167553
H       -3.57607544      -1.62345396       0.80430321
H       -3.56955280      -1.56566364      -0.95694283
H       -0.83542241       1.85221464       0.04976255
H        1.66021389       2.19811090       0.08500321
H        4.09677642      -0.65425858       0.10041978
H        3.88926476       0.82080953      -0.86823097
H        3.85770863       0.92015285       0.89446598
H        2.21346676      -2.04145362      -0.04423759
H       -0.22278618      -2.39196453      -0.08005251
22
Properties=species:S:1:pos:R:3 pbc="F F F"
C       -2.53347818       2.01187438       0.04212485
C       -2.09589020      -0.36629366      -0.03041920
C       -2.92871499      -1.59308104      -0.07390988
C       -0.71225157      -0.27909756      -0.01655634
C       -0.10800519       1.00630767       0.02956356
C        1.23542582       1.19986353       0.04877355
C        2.09399147       0.09361218       0.02288927
C        3.57506163       0.30167379       0.04022465
C        1.54218812      -1.18601816      -0.02398918
C        0.18743009      -1.38696772      -0.04373875
H       -2.71260022       2.63034916      -0.84013246
H       -2.72665201       2.56774306       0.96236775
H       -2.32815190      -2.51266550      -0.10164337
H       -3.57645763      -1.62388101       0.80445430
H       -3.56992806      -1.56609932      -0.95712168
H       -0.83618799       1.85019436       0.04973762
H        1.66058411       2.19805744       0.08506522
H        4.09640308      -0.65409889       0.10049220
H        3.88900874       0.82089812      -0.86814082
H        3.85747441       0.92039593       0.89428636
H        2.21364526      -2.04096162      -0.04424193
H       -0.22289479      -2.39180514      -0.08008571
22
Properties=species:S:1:pos:R:3 pbc="F F F"
C       -2.53200614       2.01159252       0.04211438
C       -2.09589387      -0.36545240      -0.03038004
C       -2.92847498      -1.59336028      -0.07391234
C       -0.71396928      -0.27940038      -0.01656805
C       -0.10877412       1.00664770       0.02957470
C        1.23556694       1.20023074       0.04881100
C        2.09397077       0.09372848       0.02291402
C        3.57515103       0.30182248       0.04023477
C        1.54244900      -1.18588647      -0.02399434
C        0.18742957      -1.38773643      -0.04379710
H       -2.71182298       2.63062015      -0.83904288
H       -2.72583600       2.56808698       0.96125621
H       -2.32740434      -2.51177035      -0.10161069
H       -3.57683549      -1.62431657       0.80460938
H       -3.57029704      -1.56654359      -0.95730496
H       -0.83705610       1.84818333       0.04971211
H        1.66094634       2.19803605       0.08512772
H        4.09603981      -0.65394812       0.10056278
H        3.88876256       0.82098597      -0.86805985
H        3.85725111       0.92063167       0.89411871
H        2.21382379      -2.04047791      -0.04424590
H       -0.22302058      -2.39167356      -0.08011964
