23
Properties=species:S:1:pos:R:3 pbc="F F F"
N       -1.88498104       0.85634202       2.11495090
C       -2.36911702       0.89135498       1.06447101
C       -3.05261302       0.82308602      -0.25058001
C       -3.51186204       2.12018800      -0.76501602
N       -3.88337898       3.11349392      -1.22555697
N       -3.21563005      -0.24736500      -0.87002099
N       -0.31357601       0.64148402      -0.74184197
C        0.11512100      -0.51219499      -0.33108500
C       -0.69987601      -1.70180595      -0.30573201
C       -0.18076301      -2.87864590       0.19241300
C        1.16070902      -2.98633790       0.58377498
C        1.95679605      -1.85493803       0.53770399
F        3.23976398      -1.98161900       0.92056400
C        1.50104403      -0.61336797       0.12145900
C        2.29988909       0.60110801       0.09256400
N        3.58162403       0.63025302       0.44554999
O        1.78222704       1.70029795      -0.30216801
H        0.69527602       1.48587298      -0.59193403
H       -1.71521199      -1.61704004      -0.67948997
H       -0.81000203      -3.75816703       0.25285500
H        1.60202706      -3.92279100       0.90110898
H        4.06429720       1.51680505       0.38866001
H        4.06659317      -0.19116300       0.77600700
23
Properties=species:S:1:pos:R:3 pbc="F F F"
N       -1.99724991       1.23995708       1.90921676
C       -2.57435897       1.19714227       0.88238401
C       -3.21568448       1.08584001      -0.40978145
C       -3.66316418       2.35807032      -0.91053763
N       -4.01724034       3.37483871      -1.27683856
N       -3.42402552       0.01660153      -0.97494137
N       -0.55467581       1.06714600      -0.76127746
C       -0.04253060      -0.11056143      -0.35321150
C       -0.84899617      -1.25691734      -0.31826277
C       -0.34755571      -2.49019718       0.06219247
C        0.98262738      -2.59935420       0.44800228
C        1.76834638      -1.46573383       0.42251898
F        3.05708737      -1.64670474       0.80740943
C        1.30415816      -0.22243545       0.02611453
C        2.12327096       1.01030870      -0.03226331
N        3.40268451       0.88906640       0.35741780
O        1.67516596       2.07011162      -0.41505196
H        0.13286673       1.84029256      -0.74031938
H       -1.92621291      -1.16305362      -0.60947318
H       -1.00088593      -3.35443912       0.07952159
H        1.38732033      -3.55729144       0.77304819
H        3.99736607       1.70155835       0.34669215
H        3.78168669       0.01575480       0.68744037
