23
Properties=species:S:1:pos:R:3 pbc="F F F"
N       -1.80939305       0.88039702       1.97893000
C       -2.33232999       0.85297602       0.96130502
C       -3.01210308       0.72747600      -0.30853301
C       -3.46723890       2.00500894      -0.79737902
N       -3.83324409       3.02693701      -1.15766394
N       -3.19403696      -0.33827999      -0.86565697
N       -0.37714899       0.73817998      -0.67104900
C        0.14254101      -0.45709401      -0.26160100
C       -0.67289197      -1.59473205      -0.22082500
C       -0.15804300      -2.81622791       0.16636100
C        1.17038202      -2.94142699       0.55129302
C        1.96232796      -1.81146395       0.52761197
F        3.22603607      -1.92529702       0.89482599
C        1.49336898      -0.56692702       0.12542699
C        2.30782509       0.65943599       0.07379500
N        3.59078407       0.54331899       0.45967999
O        1.82456100       1.69898999      -0.30611101
H        0.36427799       1.48644698      -0.63290298
H       -1.72270703      -1.49933398      -0.49641800
H       -0.80638403      -3.68619704       0.18616500
H        1.57513106      -3.89105797       0.87700599
H        4.18226480       1.35093403       0.46098900
H        3.97437906      -0.32721400       0.78340799
23
Properties=species:S:1:pos:R:3 pbc="F F F"
N       -1.99724991       1.23995708       1.90921676
C       -2.57435897       1.19714227       0.88238401
C       -3.21568448       1.08584001      -0.40978145
C       -3.66316418       2.35807032      -0.91053763
N       -4.01724034       3.37483871      -1.27683856
N       -3.42402552       0.01660153      -0.97494137
N       -0.55467581       1.06714600      -0.76127746
C       -0.04253060      -0.11056143      -0.35321150
C       -0.84899617      -1.25691734      -0.31826277
C       -0.34755571      -2.49019718       0.06219247
C        0.98262738      -2.59935420       0.44800228
C        1.76834638      -1.46573383       0.42251898
F        3.05708737      -1.64670474       0.80740943
C        1.30415816      -0.22243545       0.02611453
C        2.12327096       1.01030870      -0.03226331
N        3.40268451       0.88906640       0.35741780
O        1.67516596       2.07011162      -0.41505196
H        0.13286673       1.84029256      -0.74031938
H       -1.92621291      -1.16305362      -0.60947318
H       -1.00088593      -3.35443912       0.07952159
H        1.38732033      -3.55729144       0.77304819
H        3.99736607       1.70155835       0.34669215
H        3.78168669       0.01575480       0.68744037
