23
Properties=species:S:1:pos:R:3 pbc="F F F"
N       -2.02556442       1.25075236       1.92750350
C       -2.60629329       1.23586807       0.93708732
C       -3.24284714       1.11901225      -0.39358201
C       -3.68186685       2.36119205      -0.91393492
N       -3.98797158       3.37863379      -1.30344864
N       -3.60280565       0.05267326      -1.01041153
N       -0.53257250       1.05015970      -0.75873197
C       -0.03279873      -0.11557241      -0.35511178
C       -0.83345665      -1.26512218      -0.31802363
C       -0.33836782      -2.51538970       0.06422203
C        1.00032804      -2.60778331       0.45160517
C        1.79992362      -1.47344260       0.42927922
F        3.07495362      -1.73840291       0.81878630
C        1.32957346      -0.21605247       0.02339653
C        2.14583760       1.02808463      -0.03519656
N        3.44586866       0.89566907       0.36423781
O        1.72227852       2.08683719      -0.41408283
H        0.06518565       1.84943331      -0.76310372
H       -1.92196816      -1.17310869      -0.61730573
H       -1.00104763      -3.37818602       0.07392264
H        1.39390924      -3.57650598       0.77251923
H        4.02077079       1.72891562       0.33167986
H        3.80893123       0.02233497       0.68869371
23
Properties=species:S:1:pos:R:3 pbc="F F F"
N       -2.02014959       1.25019061       1.92827618
C       -2.60105232       1.22777666       0.93128642
C       -3.23891804       1.11756655      -0.39497632
C       -3.67743338       2.36197190      -0.91349395
N       -3.98905965       3.37369667      -1.30036365
N       -3.59681782       0.04973581      -1.01057402
N       -0.53555289       1.05085603      -0.75945790
C       -0.03147745      -0.11644133      -0.35400133
C       -0.83401470      -1.26321381      -0.31776600
C       -0.34053546      -2.51293907       0.06359265
C        0.99875657      -2.60355742       0.45065503
C        1.79123424      -1.47071972       0.42699063
F        3.07551206      -1.73396904       0.82034781
C        1.32891113      -0.22022811       0.02580208
C        2.14349013       1.02712853      -0.03536307
N        3.44309595       0.89534263       0.36366413
O        1.72019651       2.09033211      -0.41558654
H        0.06894317       1.84573705      -0.76001351
H       -1.92325246      -1.17325370      -0.61714973
H       -1.00025024      -3.37474885       0.07474675
H        1.39325987      -3.57240524       0.77223808
H        4.01798786       1.72697108       0.33215160
H        3.80712650       0.02417065       0.68899468
23
Properties=species:S:1:pos:R:3 pbc="F F F"
N       -2.01639566       1.25019196       1.92875724
C       -2.59809630       1.22265994       0.92678631
C       -3.23518997       1.11570584      -0.39628898
C       -3.67530594       2.36269136      -0.91349757
N       -3.99092715       3.37215244      -1.29893151
N       -3.58954357       0.04701956      -1.00974867
N       -0.53744805       1.05163236      -0.75974390
C       -0.03090961      -0.11631116      -0.35312888
C       -0.83486383      -1.26178508      -0.31759450
C       -0.34163107      -2.51126293       0.06327006
C        0.99752991      -2.60157339       0.45017950
C        1.78768866      -1.46945959       0.42609400
F        3.07443028      -1.72970634       0.82067540
C        1.32772746      -0.22232775       0.02733631
C        2.14198026       1.02687859      -0.03541579
N        3.44012310       0.89524323       0.36321607
O        1.71843807       2.08975034      -0.41566167
H        0.07222665       1.84398191      -0.75840816
H       -1.92387608      -1.17291694      -0.61688461
H       -1.00051352      -3.37312571       0.07501944
H        1.39280436      -3.57021481       0.77217144
H        4.01597868       1.72569265       0.33272512
H        3.80577333       0.02508351       0.68907334
23
Properties=species:S:1:pos:R:3 pbc="F F F"
N       -2.01340085       1.25025640       1.92883454
C       -2.59612940       1.21900420       0.92293638
C       -3.23174741       1.11349025      -0.39767635
C       -3.67410045       2.36329322      -0.91360237
N       -3.99286040       3.37168743      -1.29792021
N       -3.58170364       0.04431965      -1.00840532
N       -0.53875152       1.05240067      -0.75985665
C       -0.03073146      -0.11589880      -0.35245971
C       -0.83572443      -1.26076903      -0.31753480
C       -0.34237789      -2.51004204       0.06308662
C        0.99649581      -2.60060840       0.44991717
C        1.78567738      -1.46867153       0.42562798
F        3.07318179      -1.72579534       0.82065900
C        1.32633821      -0.22346708       0.02840020
C        2.14071791       1.02658026      -0.03536195
N        3.43752852       0.89520673       0.36287230
O        1.71644070       2.08863857      -0.41554846
H        0.07498766       1.84322301      -0.75725825
H       -1.92436561      -1.17246582      -0.61663637
H       -1.00077064      -3.37177581       0.07524469
H        1.39236548      -3.56880223       0.77216753
H        4.01436953       1.72457723       0.33337831
H        3.80456071       0.02561845       0.68913571
23
Properties=species:S:1:pos:R:3 pbc="F F F"
N       -2.01086602       1.25026384       1.92864637
C       -2.59468303       1.21614980       0.91948592
C       -3.22872296       1.11103657      -0.39915167
C       -3.67331929       2.36377171      -0.91372680
N       -3.99475966       3.37166531      -1.29705490
N       -3.57355992       0.04176651      -1.00674006
N       -0.53975751       1.05311551      -0.75989648
C       -0.03082022      -0.11538903      -0.35195626
C       -0.83652255      -1.26002239      -0.31752562
C       -0.34297728      -2.50901883       0.06296761
C        0.99556597      -2.60014390       0.44975677
C        1.78423720      -1.46808041       0.42533073
F        3.07197785      -1.72205537       0.82050863
C        1.32488316      -0.22408789       0.02912786
C        2.13956014       1.02611205      -0.03522852
N        3.43519225       0.89515781       0.36258800
O        1.71439949       2.08765030      -0.41544090
H        0.07750577       1.84291028      -0.75627543
H       -1.92475991      -1.17200506      -0.61638042
H       -1.00088469      -3.37045870       0.07550346
H        1.39194038      -3.56774367       0.77218782
H        4.01298707       1.72351729       0.33406777
H        3.80338375       0.02588828       0.68920614
23
Properties=species:S:1:pos:R:3 pbc="F F F"
N       -2.00865506       1.25020300       1.92826159
C       -2.59351247       1.21378261       0.91632480
C       -3.22610607       1.10849014      -0.40063078
C       -3.67276370       2.36414386      -0.91384147
N       -3.99659619       3.37185037      -1.29625356
N       -3.56520009       0.03941056      -1.00486757
N       -0.54061419       1.05378536      -0.75989904
C       -0.03108800      -0.11486215      -0.35158381
C       -0.83725132      -1.25946004      -0.31753248
C       -0.34348065      -2.50806069       0.06288856
C        0.99470195      -2.59990830       0.44964586
C        1.78304483      -1.46759300       0.42511133
F        3.07083163      -1.71841064       0.82027597
C        1.32343052      -0.22440483       0.02960958
C        2.13846697       1.02549636      -0.03504273
N        3.43299225       0.89506598       0.36233676
O        1.71240609       2.08683885      -0.41536473
H        0.07992385       1.84279646      -0.75536288
H       -1.92513367      -1.17156237      -0.61614068
H       -1.00089945      -3.36918240       0.07578549
H        1.39153905      -3.56686699       0.77222453
H        4.01175251       1.72248089       0.33476931
H        3.80221120       0.02596697       0.68928598
23
Properties=species:S:1:pos:R:3 pbc="F F F"
N       -2.00670524       1.25008164       1.92771275
C       -2.59248889       1.21174965       0.91339968
C       -3.22384940       1.10597037      -0.40202870
C       -3.67233287       2.36442862      -0.91393516
N       -3.99836146       3.37213540      -1.29547729
N       -3.55674459       0.03723753      -1.00288608
N       -0.54139227       1.05442618      -0.75988001
C       -0.03147352      -0.11435545      -0.35131355
C       -0.83791983      -1.25903094      -0.31754141
C       -0.34391072      -2.50712189       0.06283790
C        0.99388309      -2.59977567       0.44955834
C        1.78197233      -1.46717053       0.42492978
F        3.06974366      -1.71485018       0.81997871
C        1.32201608      -0.22453260       0.02991230
C        2.13742660       1.02478029      -0.03482804
N        3.43088540       0.89493212       0.36210378
O        1.71048161       2.08616857      -0.41532037
H        0.08231417       1.84277145      -0.75448353
H       -1.92551374      -1.17114234      -0.61592427
H       -1.00086052      -3.36796844       0.07607279
H        1.39116974      -3.56609143       0.77227448
H        4.01062407       1.72145377       0.33546856
H        3.80103630       0.02590385       0.68936934
23
Properties=species:S:1:pos:R:3 pbc="F F F"
N       -2.00498107       1.24990778       1.92702787
C       -2.59154123       1.20996759       0.91067807
C       -3.22190974       1.10355520      -0.40329583
C       -3.67196526       2.36463731      -0.91400395
N       -4.00004745       3.37246649      -1.29470482
N       -3.54832840       0.03522669      -1.00086944
N       -0.54212583       1.05505005      -0.75984829
C       -0.03193716      -0.11388409      -0.35112316
C       -0.83853821      -1.25870103      -0.31754730
C       -0.34428235      -2.50619131       0.06280762
C        0.99309883      -2.59969056       0.44948100
C        1.78096708      -1.46679578       0.42476666
F        3.06871956      -1.71137217       0.81962732
C        1.32065990      -0.22453847       0.03008363
C        2.13643644       1.02400388      -0.03460150
N        3.42885719       0.89476320       0.36188000
O        1.70862424       2.08559947      -0.41530412
H        0.08471100       1.84278434      -0.75362342
H       -1.92589794      -1.17074419      -0.61572591
H       -1.00079560      -3.36682601       0.07635396
H        1.39083779      -3.56537857       0.77233487
H        4.00957689       1.72042773       0.33615709
H        3.79986134       0.02573244       0.68944965
23
Properties=species:S:1:pos:R:3 pbc="F F F"
N       -2.00346117       1.24968775       1.92623416
C       -2.59063252       1.20838895       0.90814240
C       -3.22025897       1.10129846      -0.40441121
C       -3.67162234       2.36477336      -0.91404764
N       -4.00164386       3.37281171      -1.29392629
N       -3.54003893       0.03337401      -0.99885655
N       -0.54283256       1.05566288      -0.75981078
C       -0.03245377      -0.11345399      -0.35099702
C       -0.83912331      -1.25843413      -0.31755073
C       -0.34460598      -2.50527028       0.06279080
C        0.99234481      -2.59962942       0.44940660
C        1.78000833      -1.46646225       0.42461154
F        3.06776424      -1.70797212       0.81922903
C        1.31937182      -0.22446710       0.03015636
C        2.13549576       1.02319232      -0.03437471
N        3.42690399       0.89456450       0.36165919
O        1.70681901       2.08509313      -0.41531235
H        0.08712753       1.84280816      -0.75277895
H       -1.92627434      -1.17036674      -0.61553792
H       -1.00072059      -3.36575859       0.07662207
H        1.39054530      -3.56471225       0.77240194
H        4.00859561       1.71939660       0.33682961
H        3.79869194       0.02547506       0.68952046
23
Properties=species:S:1:pos:R:3 pbc="F F F"
N       -2.00213273       1.24942787       1.92535801
C       -2.58974545       1.20698487       0.90578425
C       -3.21887699       1.09923770      -0.40537165
C       -3.67128190       2.36483750      -0.91406728
N       -4.00314235       3.37315157      -1.29313855
N       -3.53192439       0.03169008      -0.99686740
N       -0.54352292       1.05626748      -0.75977351
C       -0.03300638      -0.11306579      -0.35092382
C       -0.83968021      -1.25822038      -0.31755392
C       -0.34488941      -2.50436204       0.06278155
C        0.99161931      -2.59958210       0.44933118
C        1.77908869      -1.46616752       0.42445881
F        3.06687988      -1.70464442       0.81878977
C        1.31815448      -0.22434862       0.03015321
C        2.13460311       1.02236103      -0.03415520
N        3.42502532       0.89434057       0.36143709
O        1.70504620       2.08461853      -0.41534275
H        0.08956634       1.84282767      -0.75195063
H       -1.92663172      -1.17000708      -0.61535381
H       -1.00064473      -3.36476573       0.07687332
H        1.39029107      -3.56408645       0.77247178
H        4.00767044       1.71835729       0.33748305
H        3.79753434       0.02514799       0.68957648
23
Properties=species:S:1:pos:R:3 pbc="F F F"
N       -2.00098525       1.24913344       1.92442500
C       -2.58887138       1.20573347       0.90359733
C       -3.21774409       1.09739386      -0.40618362
C       -3.67093159       2.36482979      -0.91406379
N       -4.00453828       3.37347394      -1.29234135
N       -3.52401458       0.03018543      -0.99491883
N       -0.54420301       1.05686498      -0.75974137
C       -0.03358199      -0.11271839      -0.35089471
C       -0.84021248      -1.25805232      -0.31755867
C       -0.34513871      -2.50346947       0.06277532
C        0.99092205      -2.59954467       0.44925309
C        1.77820705      -1.46591116       0.42430630
F        3.06606636      -1.70138317       0.81831524
C        1.31700697      -0.22420367       0.03009055
C        2.13375706       1.02152096      -0.03394766
N        3.42322129       0.89409524       0.36121131
O        1.70328749       2.08415098      -0.41539345
H        0.09202644       1.84283387      -0.75113995
H       -1.92696194      -1.16966135      -0.61516860
H       -1.00057318      -3.36384510       0.07710618
H        1.39007181      -3.56349955       0.77254119
H        4.00679522       1.71730929       0.33811624
H        3.79639471       0.02476362       0.68961425
23
Properties=species:S:1:pos:R:3 pbc="F F F"
N       -2.00000735       1.24880889       1.92345829
C       -2.58800529       1.20461608       0.90157455
C       -3.21683749       1.09577226      -0.40685896
C       -3.67056490       2.36475146      -0.91403756
N       -4.00583124       3.37377152      -1.29153408
N       -3.51633496       0.02886345      -0.99303179
N       -0.54487561       1.05745621      -0.75971811
C       -0.03416974      -0.11240969      -0.35090231
C       -0.84072297      -1.25792289      -0.31756610
C       -0.34535880      -2.50259387       0.06276887
C        0.99025348      -2.59951531       0.44917217
C        1.77736488      -1.46569284       0.42415410
F        3.06532209      -1.69818142       0.81781115
C        1.31592689      -0.22404611       0.02998090
C        2.13295621       1.02068156      -0.03375471
N        3.42149189       0.89383244       0.36098098
O        1.70152707       2.08366688      -0.41546156
H        0.09450658       1.84282234      -0.75034791
H       -1.92725965      -1.16932471      -0.61497822
H       -1.00050877      -3.36299274       0.07732075
H        1.38988318      -3.56295065       0.77260800
H        4.00596580       1.71625470       0.33872945
H        3.79527871       0.02433243       0.68963211
23
Properties=species:S:1:pos:R:3 pbc="F F F"
N       -1.99918673       1.24845874       1.92247734
C       -2.58714485       1.20361740       0.89970754
C       -3.21613158       1.09436597      -0.40741278
C       -3.67017927       2.36460633      -0.91398869
N       -4.00702439       3.37404083      -1.29071500
N       -3.50890825       0.02771607      -0.99123082
N       -0.54554130       1.05804289      -0.75970653
C       -0.03476065      -0.11213627      -0.35094040
C       -0.84121434      -1.25782493      -0.31757680
C       -0.34555401      -2.50173449       0.06275996
C        0.98961425      -2.59949250       0.44908911
C        1.77656414      -1.46551116       0.42400345
F        3.06464504      -1.69503133       0.81728316
C        1.31491096      -0.22388451       0.02983402
C        2.13219886       1.01985143      -0.03357745
N        3.41983710       0.89355677       0.36074632
O        1.69975286       2.08313629      -0.41554068
H        0.09700563       1.84279264      -0.74957483
H       -1.92752180      -1.16899138      -0.61477940
H       -1.00045333      -3.36220326       0.07751808
H        1.38972051      -3.56243821       0.77267094
H        4.00517952       1.71519826       0.33932373
H        3.79419165       0.02386441       0.68962974
23
Properties=species:S:1:pos:R:3 pbc="F F F"
N       -1.99851064       1.24808767       1.92149678
C       -2.58628964       1.20272580       0.89798662
C       -3.21559940       1.09315996      -0.40786205
C       -3.66977468       2.36440078      -0.91391726
N       -4.00812282       3.37428087      -1.28988188
N       -3.50174845       0.02672174      -0.98953846
N       -0.54619993       1.05862793      -0.75970872
C       -0.03534827      -0.11189324      -0.35100404
C       -0.84168986      -1.25775069      -0.31759130
C       -0.34572875      -2.50088804       0.06274686
C        0.98900402      -2.59947363       0.44900462
C        1.77580515      -1.46536280       0.42385561
F        3.06403210      -1.69192327       0.81673619
C        1.31395450      -0.22372317       0.02965730
C        2.13148139       1.01903818      -0.03341624
N        3.41825538       0.89327328       0.36050776
O        1.69796621       2.08251925      -0.41561688
H        0.09952135       1.84274714      -0.74882078
H       -1.92774730      -1.16865489      -0.61456972
H       -1.00040881      -3.36146942       0.07769935
H        1.38957813      -3.56195883       0.77272898
H        4.00443348       1.71414623       0.33990009
H        3.79313683       0.02336918       0.68960717
23
Properties=species:S:1:pos:R:3 pbc="F F F"
N       -1.99796687       1.24769908       1.92052663
C       -2.58544135       1.20193189       0.89640114
C       -3.21521591       1.09213387      -0.40822451
C       -3.66935383       2.36414225      -0.91382372
N       -4.00913375       3.37449164      -1.28903287
N       -3.49485742       0.02584762      -0.98796873
N       -0.54685246       1.05921441      -0.75972648
C       -0.03592940      -0.11167579      -0.35108949
C       -0.84215445      -1.25769304      -0.31761038
C       -0.34588835      -2.50005054       0.06272800
C        0.98842055      -2.59945622       0.44891906
C        1.77508566      -1.46524402       0.42371133
F        3.06347859      -1.68884665       0.81617413
C        1.31305078      -0.22356438       0.02945605
C        2.13079756       1.01824746      -0.03327126
N        3.41674321       0.89298599       0.36026565
O        1.69619627       2.08179085      -0.41567064
H        0.10204891       1.84268895      -0.74808604
H       -1.92793732      -1.16830991      -0.61434769
H       -1.00037821      -3.36078401       0.07786550
H        1.38944898      -3.56150885       0.77278102
H        4.00372395       1.71310478       0.34045898
H        3.79211486       0.02285462       0.68956430
23
Properties=species:S:1:pos:R:3 pbc="F F F"
N       -1.99754364       1.24729346       1.91957427
C       -2.58460228       1.20122635       0.89494044
C       -3.21495896       1.09126354      -0.40851684
C       -3.66892046       2.36383691      -0.91370846
N       -4.01006555       3.37467234      -1.28816665
N       -3.48822451       0.02505651      -0.98652336
N       -0.54750044       1.05980350      -0.75976110
C       -0.03650270      -0.11148133      -0.35119353
C       -0.84261356      -1.25764753      -0.31763458
C       -0.34603798      -2.49922028       0.06270247
C        0.98786104      -2.59944004       0.44883298
C        1.77440233      -1.46515290       0.42357138
F        3.06297934      -1.68579195       0.81560020
C        1.31219274      -0.22341108       0.02923467
C        2.13014105       1.01748134      -0.03314197
N        3.41529726       0.89269631       0.36002075
O        1.69447310       2.08097540      -0.41569466
H        0.10458129       1.84261938      -0.74737076
H       -1.92809377      -1.16795416      -0.61411198
H       -1.00036458      -3.36014258       0.07801784
H        1.38932630      -3.56108682       0.77282658
H        4.00304814       1.71207816       0.34100084
H        3.79112584       0.02232547       0.68950147
23
Properties=species:S:1:pos:R:3 pbc="F F F"
N       -1.99722710       1.24686916       1.91864416
C       -2.58377291       1.20060011       0.89359369
C       -3.21480781       1.09052393      -0.40875360
C       -3.66847639       2.36348970      -0.91357138
N       -4.01092504       3.37482156      -1.28728214
N       -3.48182940       0.02431684      -0.98519428
N       -0.54814428       1.06039498      -0.75981324
C       -0.03706701      -0.11130855      -0.35131323
C       -0.84307124      -1.25761087      -0.31766389
C       -0.34618117      -2.49839663       0.06267015
C        0.98732355      -2.59942542       0.44874717
C        1.77375211      -1.46508808       0.42343658
F        3.06252887      -1.68274953       0.81501674
C        1.31137441      -0.22326608       0.02899716
C        2.12950724       1.01673987      -0.03302698
N        3.41391545       0.89240448       0.35977437
O        1.69279663       2.08011234      -0.41569579
H        0.10711062       1.84253790      -0.74667446
H       -1.92821709      -1.16758669      -0.61386097
H       -1.00036939      -3.35954184       0.07815815
H        1.38920504      -3.56069173       0.77286579
H        4.00240455       1.71106924       0.34152654
H        3.79017035       0.02178532       0.68941946
23
Properties=species:S:1:pos:R:3 pbc="F F F"
N       -1.99700153       1.24642334       1.91773689
C       -2.58295196       1.20004546       0.89234901
C       -3.21474409       1.08989212      -0.40894699
C       -3.66802260       2.36310572      -0.91341234
N       -4.01171826       3.37493901      -1.28637915
N       -3.47564975       0.02360694      -0.98396921
N       -0.54878351       1.06098856      -0.75988322
C       -0.03762164      -0.11115606      -0.35144625
C       -0.84353063      -1.25757982      -0.31769807
C       -0.34632027      -2.49757912       0.06263142
C        0.98680662      -2.59941225       0.44866236
C        1.77313202      -1.46504787       0.42330757
F        3.06212094      -1.67970900       0.81442499
C        1.31059074      -0.22313121       0.02874701
C        2.12889225       1.01602311      -0.03292469
N        3.41259581       0.89211056       0.35952806
O        1.69115466       2.07922672      -0.41568195
H        0.10962841       1.84244334      -0.74599671
H       -1.92830667      -1.16720656      -0.61359300
H       -1.00039313      -3.35897880       0.07828840
H        1.38908150      -3.56032218       0.77289914
H        4.00179231       1.71008048       0.34203743
H        3.78924879       0.02123753       0.68931929
23
Properties=species:S:1:pos:R:3 pbc="F F F"
N       -1.99685205       1.24595273       1.91685097
C       -2.58213634       1.19955551       0.89119279
C       -3.21475216       1.08934816      -0.40910679
C       -3.66756049       2.36269017      -0.91323134
N       -4.01245097       3.37502544      -1.28545854
N       -3.46966754       0.02291295      -0.98283506
N       -0.54941727       1.06158427      -0.75997097
C       -0.03816631      -0.11102235      -0.35159085
C       -0.84399422      -1.25755133      -0.31773674
C       -0.34645667      -2.49676762       0.06258700
C        0.98630904      -2.59940039       0.44857917
C        1.77253932      -1.46503057       0.42318486
F        3.06174855      -1.67665906       0.81382520
C        1.30983745      -0.22300753       0.02848732
C        2.12829235       1.01533149      -0.03283364
N        3.41133615       0.89181438       0.35928345
O        1.68953628       2.07833152      -0.41565808
H        0.11212625       1.84233413      -0.74533753
H       -1.92836083      -1.16681289      -0.61330638
H       -1.00043559      -3.35845093       0.07841055
H        1.38895308      -3.55997654       0.77292740
H        4.00121097       1.70911373       0.34253523
H        3.78836102       0.02068474       0.68920198
23
Properties=species:S:1:pos:R:3 pbc="F F F"
N       -1.99676570       1.24545376       1.91598415
C       -2.58132224       1.19912379       0.89011031
C       -3.21481793       1.08887446      -0.40924039
C       -3.66709163       2.36224760      -0.91302845
N       -4.01312851       3.37508194      -1.28452178
N       -3.46387059       0.02222580      -0.98177928
N       -0.55004462       1.06218222      -0.76007592
C       -0.03870100      -0.11090613      -0.35174576
C       -0.84446397      -1.25752261      -0.31777928
C       -0.34659087      -2.49596244       0.06253790
C        0.98582971      -2.59938972       0.44849811
C        1.77197158      -1.46503456       0.42306886
F        3.06140371      -1.67358597       0.81321642
C        1.30911094      -0.22289567       0.02822074
C        2.12770438       1.01466569      -0.03275246
N        3.41013561       0.89151610       0.35904207
O        1.68793269       2.07743218      -0.41562653
H        0.11459661       1.84220838      -0.74469741
H       -1.92837633      -1.16640480      -0.61299907
H       -1.00049592      -3.35795602       0.07852656
H        1.38881804      -3.55965294       0.77295147
H        4.00066003       1.70817020       0.34302152
H        3.78750599       0.02012874       0.68906821
23
Properties=species:S:1:pos:R:3 pbc="F F F"
N       -1.99673146       1.24492310       1.91513410
C       -2.58050766       1.19874473       0.88908770
C       -3.21492795       1.08845497      -0.40935345
C       -3.66661774       2.36178191      -0.91280364
N       -4.01375618       3.37511018      -1.28357110
N       -3.45825265       0.02153941      -0.98079034
N       -0.55066442       1.06278289      -0.76019701
C       -0.03922551      -0.11080643      -0.35191000
C       -0.84494148      -1.25749122      -0.31782486
C       -0.34672256      -2.49516478       0.06248527
C        0.98536778      -2.59938048       0.44841949
C        1.77142707      -1.46505863       0.42295997
F        3.06107712      -1.67047327       0.81259621
C        1.30840866      -0.22279611       0.02794953
C        2.12712566       1.01402634      -0.03268001
N        3.40899397       0.89121553       0.35880539
O        1.68633717       2.07653039      -0.41558816
H        0.11703375       1.84206420      -0.74407717
H       -1.92834778      -1.16598118      -0.61266862
H       -1.00057259      -3.35749240       0.07863831
H        1.38867553      -3.55934971       0.77297236
H        4.00013933       1.70725050       0.34349783
H        3.78668194       0.01957006       0.68891820
23
Properties=species:S:1:pos:R:3 pbc="F F F"
N       -1.99674004       1.24435764       1.91429833
C       -2.57969105       1.19841308       0.88811097
C       -3.21506838       1.08807425      -0.40945024
C       -3.66613974       2.36129590      -0.91255655
N       -4.01433933       3.37511239      -1.28260949
N       -3.45281154       0.02084975      -0.97985755
N       -0.55127566       1.06338680      -0.76033267
C       -0.03973959      -0.11072279      -0.35208266
C       -0.84542845      -1.25745465      -0.31787218
C       -0.34685085      -2.49437656       0.06243045
C        0.98492242      -2.59937304       0.44834356
C        1.77090454      -1.46510188       0.42285864
F        3.06075581      -1.66730211       0.81196028
C        1.30772884      -0.22270930       0.02767572
C        2.12655405       1.01341369      -0.03261504
N        3.40791101       0.89091232       0.35857472
O        1.68474442       2.07562590      -0.41554304
H        0.11943331       1.84189970      -0.74347762
H       -1.92826674      -1.16554113      -0.61231193
H       -1.00066356      -3.35705869       0.07874782
H        1.38852502      -3.55906535       0.77299116
H        3.99964861       1.70635512       0.34396548
H        3.78588690       0.01900895       0.68875182
23
Properties=species:S:1:pos:R:3 pbc="F F F"
N       -1.99678361       1.24375456       1.91347413
C       -2.57886847       1.19812331       0.88716440
C       -3.21522471       1.08771712      -0.40953399
C       -3.66565831       2.36079170      -0.91228653
N       -4.01488403       3.37509171      -1.28164076
N       -3.44754719       0.02015450      -0.97897091
N       -0.55187761       1.06399448      -0.76048084
C       -0.04024302      -0.11065511      -0.35226276
C       -0.84592759      -1.25740966      -0.31791900
C       -0.34697461      -2.49360056       0.06237498
C        0.98449278      -2.59936779       0.44827062
C        1.77040336      -1.46516362       0.42276560
F        3.06041954      -1.66405187       0.81130179
C        1.30707032      -0.22263552       0.02740123
C        2.12598830       1.01282757      -0.03255599
N        3.40688658       0.89060643       0.35835120
O        1.68315038       2.07471774      -0.41549062
H        0.12179180       1.84171222      -0.74289937
H       -1.92812081      -1.16508670      -0.61192505
H       -1.00076612      -3.35665370       0.07885796
H        1.38836596      -3.55879862       0.77300933
H        3.99918740       1.70548492       0.34442558
H        3.78511966       0.01844689       0.68856900
23
Properties=species:S:1:pos:R:3 pbc="F F F"
N       -1.99685473       1.24311151       1.91265829
C       -2.57803405       1.19787015       0.88623189
C       -3.21538130       1.08736885      -0.40960723
C       -3.66517344       2.36027117      -0.91199290
N       -4.01539670       3.37505264      -1.28066948
N       -3.44246143       0.01945278      -0.97812160
N       -0.55246943       1.06460701      -0.76063918
C       -0.04073518      -0.11060323      -0.35244955
C       -0.84644459      -1.25735046      -0.31796193
C       -0.34709192      -2.49284035       0.06232045
C        0.98407865      -2.59936465       0.44820092
C        1.76992411      -1.46524302       0.42268173
F        3.06003590      -1.66070296       0.81061048
C        1.30643296      -0.22257456       0.02712771
C        2.12542792       1.01226795      -0.03250132
N        3.40592053       0.89029843       0.35813572
O        1.68155263       2.07380498      -0.41543017
H        0.12410665       1.84149858      -0.74234324
H       -1.92789540      -1.16462769      -0.61150394
H       -1.00087397      -3.35627630       0.07897565
H        1.38819763      -3.55854818       0.77302887
H        3.99875547       1.70464103       0.34487911
H        3.78437969       0.01788634       0.68836972
23
Properties=species:S:1:pos:R:3 pbc="F F F"
N       -1.99694794       1.24242318       1.91184435
C       -2.57718162       1.19764600       0.88529527
C       -3.21552441       1.08701317      -0.40967384
C       -3.66468686       2.35973350      -0.91167697
N       -4.01588655       3.37499861      -1.27970268
N       -3.43756060       0.01874192      -0.97730419
N       -0.55305187       1.06522398      -0.76080687
C       -0.04121715      -0.11056986      -0.35264440
C       -0.84700054      -1.25726761      -0.31800021
C       -0.34720259      -2.49210607       0.06226663
C        0.98367823      -2.59936574       0.44813278
C        1.76946658      -1.46534220       0.42260636
F        3.05954827      -1.65724685       0.80986960
C        1.30581543      -0.22252824       0.02685467
C        2.12487013       1.01173269      -0.03245180
N        3.40501062       0.88998639       0.35792717
O        1.67994797       2.07288436      -0.41536278
H        0.12637348       1.84125144      -0.74181192
H       -1.92758519      -1.16418578      -0.61104884
H       -1.00088856      -3.35585731       0.07915468
H        1.38800895      -3.55831476       0.77305568
H        3.99835080       1.70382199       0.34532538
H        3.78366342       0.01732718       0.68815194
23
Properties=species:S:1:pos:R:3 pbc="F F F"
N       -1.99704471       1.24167999       1.91103465
C       -2.57629007       1.19744269       0.88434882
C       -3.21562931       1.08663471      -0.40972448
C       -3.66418784       2.35917628      -0.91132771
N       -4.01635110       3.37493256      -1.27873513
N       -3.43283915       0.01801836      -0.97650209
N       -0.55361394       1.06584440      -0.76097051
C       -0.04167780      -0.11055962      -0.35283638
C       -0.84763109      -1.25715998      -0.31804923
C       -0.34729811      -2.49141808       0.06222654
C        0.98330211      -2.59937392       0.44807700
C        1.76904429      -1.46546557       0.42255193
F        3.05889666      -1.65371326       0.80907775
C        1.30522888      -0.22249931       0.02659387
C        2.12432420       1.01121822      -0.03239591
N        3.40416686       0.88966705       0.35773707
O        1.67834544       2.07195105      -0.41527702
H        0.12859916       1.84096101      -0.74129542
H       -1.92718883      -1.16378213      -0.61055270
H       -1.00088841      -3.35537688       0.07927296
H        1.38777141      -3.55797184       0.77304424
H        3.99798373       1.70302485       0.34577640
H        3.78297763       0.01676943       0.68792535
23
Properties=species:S:1:pos:R:3 pbc="F F F"
N       -1.99713643       1.24089834       1.91022499
C       -2.57536593       1.19727442       0.88339162
C       -3.21568658       1.08624621      -0.40976203
C       -3.66368692       2.35862466      -0.91095449
N       -4.01679290       3.37487648      -1.27779075
N       -3.42837639       0.01730939      -0.97572646
N       -0.55415117       1.06647201      -0.76112967
C       -0.04211217      -0.11055744      -0.35302554
C       -0.84830210      -1.25704628      -0.31814146
C       -0.34739468      -2.49078710       0.06219978
C        0.98295384      -2.59937358       0.44803167
C        1.76866632      -1.46559680       0.42251842
F        3.05809112      -1.65021634       0.80826100
C        1.30468092      -0.22247228       0.02634748
C        2.12379742       1.01074563      -0.03233589
N        3.40339843       0.88936128       0.35756619
O        1.67676814       2.07103425      -0.41517710
H        0.13074334       1.84064789      -0.74080602
H       -1.92673503      -1.16341029      -0.61003425
H       -1.00089032      -3.35491308       0.07939003
H        1.38754426      -3.55763758       0.77303809
H        3.99765697       1.70227722       0.34622340
H        3.78232986       0.01624302       0.68769098
23
Properties=species:S:1:pos:R:3 pbc="F F F"
N       -1.99724991       1.23995708       1.90921676
C       -2.57435897       1.19714227       0.88238401
C       -3.21568448       1.08584001      -0.40978145
C       -3.66316418       2.35807032      -0.91053763
N       -4.01724034       3.37483871      -1.27683856
N       -3.42402552       0.01660153      -0.97494137
N       -0.55467581       1.06714600      -0.76127746
C       -0.04253060      -0.11056143      -0.35321150
C       -0.84899617      -1.25691734      -0.31826277
C       -0.34755571      -2.49019718       0.06219247
C        0.98262738      -2.59935420       0.44800228
C        1.76834638      -1.46573383       0.42251898
F        3.05708737      -1.64670474       0.80740943
C        1.30415816      -0.22243545       0.02611453
C        2.12327096       1.01030870      -0.03226331
N        3.40268451       0.88906640       0.35741780
O        1.67516596       2.07011162      -0.41505196
H        0.13286673       1.84029256      -0.74031938
H       -1.92621291      -1.16305362      -0.60947318
H       -1.00088593      -3.35443912       0.07952159
H        1.38732033      -3.55729144       0.77304819
H        3.99736607       1.70155835       0.34669215
H        3.78168669       0.01575480       0.68744037
23
Properties=species:S:1:pos:R:3 pbc="F F F"
N       -1.99754668       1.23905809       1.90800588
C       -2.57327111       1.19703627       0.88133244
C       -3.21561636       1.08540727      -0.40978313
C       -3.66262649       2.35751098      -0.91008390
N       -4.01773750       3.37476269      -1.27590566
N       -3.41987168       0.01589704      -0.97416016
N       -0.55518390       1.06783471      -0.76141702
C       -0.04292592      -0.11057895      -0.35339444
C       -0.84968715      -1.25677925      -0.31838936
C       -0.34774755      -2.48960707       0.06220417
C        0.98233357      -2.59932759       0.44798915
C        1.76809332      -1.46586599       0.42254971
F        3.05601802      -1.64324721       0.80656845
C        1.30367292      -0.22240103       0.02589934
C        2.12276065       1.00989942      -0.03217673
N        3.40203872       0.88877765       0.35729468
O        1.67356535       2.06918547      -0.41490421
H        0.13494017       1.83990560      -0.73984845
H       -1.92564114      -1.16272072      -0.60888484
H       -1.00086953      -3.35397277       0.07966817
H        1.38710459      -3.55695051       0.77307599
H        3.99711771       1.70086435       0.34717733
H        3.78107998       0.01531152       0.68718258
23
Properties=species:S:1:pos:R:3 pbc="F F F"
N       -1.99791428       1.23821137       1.90674932
C       -2.57210760       1.19696840       0.88021417
C       -3.21549879       1.08496423      -0.40978344
C       -3.66209508       2.35696187      -0.90960871
N       -4.01806980       3.37440172      -1.27486840
N       -3.41594553       0.01521290      -0.97339957
N       -0.55569659       1.06855283      -0.76156298
C       -0.04331934      -0.11059793      -0.35359114
C       -0.85039146      -1.25661438      -0.31853176
C       -0.34797083      -2.48898519       0.06222118
C        0.98209965      -2.59934034       0.44799493
C        1.76787588      -1.46596851       0.42259104
F        3.05489057      -1.63983532       0.80573272
C        1.30320736      -0.22235346       0.02568781
C        2.12224645       1.00952983      -0.03208991
N        3.40144241       0.88850871       0.35718428
O        1.67194557       2.06826928      -0.41474837
H        0.13693769       1.83950049      -0.73940865
H       -1.92504581      -1.16239597      -0.60828812
H       -1.00085813      -3.35349644       0.07981618
H        1.38687839      -3.55659845       0.77310773
H        3.99688919       1.70016486       0.34767645
H        3.78050009       0.01493951       0.68690524
23
Properties=species:S:1:pos:R:3 pbc="F F F"
N       -1.99829534       1.23736937       1.90546153
C       -2.57083979       1.19692445       0.87903056
C       -3.21531896       1.08450292      -0.40977823
C       -3.66155969       2.35641265      -0.90910691
N       -4.01837482       3.37408748      -1.27384843
N       -3.41224355       0.01454007      -0.97265661
N       -0.55620406       1.06928510      -0.76171164
C       -0.04369958      -0.11062726      -0.35379801
C       -0.85109417      -1.25643223      -0.31868049
C       -0.34819272      -2.48833881       0.06225154
C        0.98184662      -2.59938499       0.44802263
C        1.76769540      -1.46605620       0.42264751
F        3.05374490      -1.63647328       0.80491501
C        1.30277644      -0.22230331       0.02548708
C        2.12174373       1.00918548      -0.03199467
N        3.40090948       0.88824912       0.35709468
O        1.67031813       2.06735068      -0.41457812
H        0.13887293       1.83907306      -0.73899486
H       -1.92442109      -1.16208724      -0.60768098
H       -1.00083652      -3.35301851       0.07997298
H        1.38665579      -3.55624481       0.77315060
H        3.99654056       1.69935946       0.34817307
H        3.77997634       0.01462681       0.68662177
23
Properties=species:S:1:pos:R:3 pbc="F F F"
N       -1.99868148       1.23651395       1.90414134
C       -2.56945484       1.19688974       0.87778153
C       -3.21508344       1.08401757      -0.40976783
C       -3.66102896       2.35585423      -0.90857775
N       -4.01868285       3.37380913      -1.27285271
N       -3.40877672       0.01387086      -0.97193312
N       -0.55671404       1.07001651      -0.76186403
C       -0.04407208      -0.11067325      -0.35401519
C       -0.85179851      -1.25624200      -0.31883136
C       -0.34840775      -2.48767744       0.06229900
C        0.98160134      -2.59942491       0.44806151
C        1.76754359      -1.46614264       0.42272184
F        3.05259178      -1.63316585       0.80412127
C        1.30237745      -0.22226029       0.02530043
C        2.12125098       1.00885322      -0.03188674
N        3.40043714       0.88799083       0.35703005
O        1.66867662       2.06641822      -0.41439103
H        0.14074539       1.83862069      -0.73860511
H       -1.92377889      -1.16180078      -0.60706524
H       -1.00080768      -3.35254634       0.08014180
H        1.38643324      -3.55589781       0.77320766
H        3.99611543       1.69861850       0.34864295
H        3.77951428       0.01435786       0.68634074
23
Properties=species:S:1:pos:R:3 pbc="F F F"
N       -1.99907000       1.23564345       1.90278503
C       -2.56793787       1.19685577       0.87646676
C       -3.21480003       1.08351221      -0.40975538
C       -3.66051320       2.35528685      -0.90802417
N       -4.01900646       3.37356609      -1.27188516
N       -3.40555343       0.01320691      -0.97123448
N       -0.55723428       1.07074128      -0.76202465
C       -0.04444162      -0.11073280      -0.35424550
C       -0.85250831      -1.25604385      -0.31898404
C       -0.34861555      -2.48700116       0.06236381
C        0.98136161      -2.59945817       0.44811072
C        1.76741449      -1.46622997       0.42281383
F        3.05143469      -1.62991083       0.80335295
C        1.30200724      -0.22222496       0.02512814
C        2.12076639       1.00852979      -0.03176515
N        3.40002221       0.88773775       0.35699071
O        1.66701362       2.06546940      -0.41418771
H        0.14255631       1.83814877      -0.73823954
H       -1.92313129      -1.16153278      -0.60644550
H       -1.00077519      -3.35207784       0.08032265
H        1.38620683      -3.55555565       0.77327858
H        3.99569015       1.69794189       0.34911253
H        3.77911370       0.01412786       0.68606557
23
Properties=species:S:1:pos:R:3 pbc="F F F"
N       -1.99945635       1.23475974       1.90139147
C       -2.56626744       1.19681008       0.87509062
C       -3.21447533       1.08299219      -0.40974207
C       -3.66002136       2.35471140      -0.90744947
N       -4.01935154       3.37335737      -1.27094806
N       -3.40257748       0.01254997      -0.97056574
N       -0.55776870       1.07145419      -0.76219761
C       -0.04480904      -0.11080321      -0.35449081
C       -0.85322428      -1.25583792      -0.31913791
C       -0.34881471      -2.48630957       0.06244662
C        0.98112598      -2.59948367       0.44817047
C        1.76730653      -1.46631904       0.42292390
F        3.05027715      -1.62670766       0.80261150
C        1.30166617      -0.22219783       0.02497113
C        2.12029163       1.00821284      -0.03162846
N        3.39966283       0.88749687       0.35697613
O        1.66532438       2.06450150      -0.41396786
H        0.14431095       1.83766182      -0.73789700
H       -1.92248687      -1.16127867      -0.60582526
H       -1.00073952      -3.35161098       0.08051610
H        1.38597625      -3.55521623       0.77336359
H        3.99527530       1.69732245       0.34958959
H        3.77877546       0.01393438       0.68579911
23
Properties=species:S:1:pos:R:3 pbc="F F F"
N       -1.99983543       1.23386669       1.89996148
C       -2.56441582       1.19673516       0.87366425
C       -3.21411861       1.08246437      -0.40972728
C       -3.65956317       2.35412858      -0.90685829
N       -4.01972070       3.37318030      -1.27004318
N       -3.39985136       0.01190141      -0.96993240
N       -0.55831969       1.07215027      -0.76238707
C       -0.04517423      -0.11088255      -0.35475301
C       -0.85394657      -1.25562438      -0.31929272
C       -0.34900438      -2.48560183       0.06254764
C        0.98089313      -2.59950039       0.44824078
C        1.76721916      -1.46640998       0.42305212
F        3.04912126      -1.62355660       0.80189773
C        1.30135527      -0.22217969       0.02483022
C        2.11982870       1.00790032      -0.03147557
N        3.39935331       0.88727535       0.35698406
O        1.66360376       2.06351058      -0.41373093
H        0.14601556       1.83716325      -0.73757598
H       -1.92185295      -1.16103345      -0.60520762
H       -1.00070054      -3.35114382       0.08072247
H        1.38574194      -3.55487709       0.77346258
H        3.99487156       1.69675715       0.35007752
H        3.77849978       0.01377635       0.68554321
23
Properties=species:S:1:pos:R:3 pbc="F F F"
N       -2.00020206       1.23297031       1.89849769
C       -2.56234813       1.19661165       0.87221339
C       -3.21374022       1.08193503      -0.40970967
C       -3.65915099       2.35353887      -0.90625851
N       -4.02011394       3.37303071      -1.26917194
N       -3.39737757       0.01126264      -0.96934090
N       -0.55888844       1.07282531      -0.76259759
C       -0.04553702      -0.11096935      -0.35503462
C       -0.85467547      -1.25540308      -0.31944900
C       -0.34918444      -2.48487660       0.06266613
C        0.98066178      -2.59950706       0.44832100
C        1.76715208      -1.46650229       0.42319767
F        3.04796809      -1.62045811       0.80121139
C        1.30107566      -0.22217134       0.02470548
C        2.11937929       1.00759084      -0.03130637
N        3.39908503       0.88707783       0.35701111
O        1.66184641       2.06249215      -0.41347675
H        0.14767650       1.83665614      -0.73727543
H       -1.92123614      -1.16079171      -0.60459578
H       -1.00065809      -3.35067425       0.08094126
H        1.38550448      -3.55453551       0.77357457
H        3.99447698       1.69624406       0.35057841
H        3.77828623       0.01365375       0.68529848
23
Properties=species:S:1:pos:R:3 pbc="F F F"
N       -2.00055099       1.23207802       1.89700422
C       -2.56003102       1.19643053       0.87079196
C       -3.21334722       1.08140613      -0.40968885
C       -3.65880678       2.35294342      -0.90566783
N       -4.02052837       3.37290274      -1.26833589
N       -3.39515820       0.01063497      -0.96879876
N       -0.55947483       1.07347616      -0.76283430
C       -0.04589705      -0.11106295      -0.35533919
C       -0.85541104      -1.25517399      -0.31960832
C       -0.34935511      -2.48413326       0.06279995
C        0.98043100      -2.59950252       0.44840936
C        1.76710540      -1.46659532       0.42335848
F        3.04681851      -1.61741325       0.80055088
C        1.30082862      -0.22217406       0.02459587
C        2.11894493       1.00728322      -0.03112208
N        3.39884979       0.88690563       0.35705344
O        1.66004799       2.06144148      -0.41320594
H        0.14930037       1.83614312      -0.73699520
H       -1.92064198      -1.16054835      -0.60399356
H       -1.00061174      -3.35020048       0.08117078
H        1.38526470      -3.55418888       0.77369732
H        3.99408902       1.69578093       0.35109368
H        3.77813397       0.01356672       0.68506398
23
Properties=species:S:1:pos:R:3 pbc="F F F"
N       -2.00087453       1.23119507       1.89548779
C       -2.55746372       1.19621219       0.86947712
C       -3.21293965       1.08087200      -0.40966478
C       -3.65859057       2.35238623      -0.90514020
N       -4.02095558       3.37278615      -1.26753522
N       -3.39319194       0.01001682      -0.96831259
N       -0.56007499       1.07409792      -0.76310114
C       -0.04625122      -0.11116643      -0.35566959
C       -0.85615025      -1.25494022      -0.31977154
C       -0.34951413      -2.48337502       0.06294715
C        0.98020297      -2.59948889       0.44850465
C        1.76708224      -1.46669150       0.42353283
F        3.04567621      -1.61442692       0.79991496
C        1.30061804      -0.22219255       0.02450085
C        2.11852954       1.00697333      -0.03092370
N        3.39864397       0.88675515       0.35710846
O        1.65820835       2.06035078      -0.41291838
H        0.15089667       1.83562342      -0.73673450
H       -1.92007210      -1.16030179      -0.60340372
H       -1.00055810      -3.34972391       0.08140973
H        1.38502628      -3.55383775       0.77382900
H        3.99370831       1.69536356       0.35162401
H        3.77804420       0.01351235       0.68483881
23
Properties=species:S:1:pos:R:3 pbc="F F F"
N       -2.00116862       1.23032293       1.89395441
C       -2.55471104       1.19599651       0.86830651
C       -3.21251659       1.08031898      -0.40964130
C       -3.65844974       2.35198416      -0.90464460
N       -4.02138917       3.37266563      -1.26677164
N       -3.39147931       0.00940333      -0.96789024
N       -0.56068702       1.07468284      -0.76340359
C       -0.04659920      -0.11128754      -0.35603070
C       -0.85689249      -1.25470914      -0.31994149
C       -0.34966228      -2.48260989       0.06310317
C        0.97997746      -2.59947277       0.44860341
C        1.76708333      -1.46679757       0.42371667
F        3.04454282      -1.61150883       0.79930016
C        1.30044462      -0.22223587       0.02441754
C        2.11813405       1.00665302      -0.03071471
N        3.39846315       0.88661807       0.35717176
O        1.65632636       2.05920871      -0.41261600
H        0.15247210       1.83509222      -0.73649467
H       -1.91952988      -1.16005525      -0.60283091
H       -1.00049663      -3.34925043       0.08165446
H        1.38479011      -3.55348707       0.77396542
H        3.99333338       1.69498418       0.35216703
H        3.77801459       0.01348376       0.68461932
23
Properties=species:S:1:pos:R:3 pbc="F F F"
N       -2.00142981       1.22947426       1.89241332
C       -2.55185672       1.19581400       0.86725654
C       -3.21207457       1.07974316      -0.40962204
C       -3.65833460       2.35162371      -0.90413649
N       -4.02182281       3.37253789      -1.26604369
N       -3.39001879       0.00880225      -0.96753615
N       -0.56130803       1.07523614      -0.76374465
C       -0.04694002      -0.11142295      -0.35642485
C       -0.85763634      -1.25447684      -0.32011851
C       -0.34979977      -2.48183522       0.06326547
C        0.97975529      -2.59944970       0.44870443
C        1.76711050      -1.46690913       0.42390810
F        3.04342191      -1.60865775       0.79870531
C        1.30030898      -0.22230153       0.02434513
C        2.11776011       1.00632595      -0.03049652
N        3.39830532       0.88649759       0.35724137
O        1.65440347       2.05801648      -0.41229852
H        0.15403421       1.83455631      -0.73627468
H       -1.91901717      -1.15980127      -0.60227741
H       -1.00042634      -3.34877507       0.08190339
H        1.38455787      -3.55313087       0.77410464
H        3.99296438       1.69464673       0.35272222
H        3.77804295       0.01348588       0.68440358
23
Properties=species:S:1:pos:R:3 pbc="F F F"
N       -2.00165393       1.22865797       1.89087647
C       -2.54896135       1.19566970       0.86629339
C       -3.21160649       1.07913712      -0.40960815
C       -3.65825455       2.35127236      -0.90362267
N       -4.02224888       3.37239745      -1.26534596
N       -3.38880511       0.00821937      -0.96725027
N       -0.56193414       1.07576197      -0.76412461
C       -0.04727124      -0.11157243      -0.35685113
C       -0.85837857      -1.25424200      -0.32029984
C       -0.34992531      -2.48105131       0.06343413
C        0.97953895      -2.59941782       0.44880927
C        1.76716719      -1.46702467       0.42410798
F        3.04231916      -1.60587552       0.79813216
C        1.30021174      -0.22238917       0.02428534
C        2.11741044       1.00599301      -0.03026780
N        3.39817082       0.88639433       0.35731827
O        1.65244427       2.05677335      -0.41196275
H        0.15559165       1.83401957      -0.73607020
H       -1.91853329      -1.15953574      -0.60174249
H       -1.00034485      -3.34829554       0.08215775
H        1.38433248      -3.55276565       0.77424746
H        3.99260315       1.69435252       0.35329158
H        3.77812787       0.01352115       0.68419206
23
Properties=species:S:1:pos:R:3 pbc="F F F"
N       -2.00183894       1.22788083       1.88935439
C       -2.54606917       1.19556239       0.86539496
C       -3.21110702       1.07849389      -0.40960078
C       -3.65821401       2.35092262      -0.90310708
N       -4.02266241       3.37223947      -1.26467302
N       -3.38783141       0.00765983      -0.96703169
N       -0.56256460       1.07626561      -0.76454637
C       -0.04759164      -0.11173722      -0.35730906
C       -0.85911709      -1.25400454      -0.32048328
C       -0.35003872      -2.48026020       0.06360840
C        0.97933000      -2.59937668       0.44891878
C        1.76725619      -1.46714419       0.42431643
F        3.04124033      -1.60316550       0.79758191
C        1.30015130      -0.22249846       0.02423879
C        2.11708652       1.00565423      -0.03002797
N        3.39806007       0.88630820       0.35740278
O        1.65045379       2.05547878      -0.41160625
H        0.15715150       1.83348527      -0.73587736
H       -1.91807823      -1.15925664      -0.60122625
H       -1.00025120      -3.34781140       0.08241792
H        1.38411576      -3.55238935       0.77439407
H        3.99225126       1.69410224       0.35387611
H        3.77826771       0.01359082       0.68398456
23
Properties=species:S:1:pos:R:3 pbc="F F F"
N       -2.00198363       1.22714800       1.88785592
C       -2.54321529       1.19549117       0.86455124
C       -3.21057098       1.07780666      -0.40960074
C       -3.65821499       2.35057226      -0.90259185
N       -4.02306061       3.37206036      -1.26401927
N       -3.38708751       0.00712849      -0.96687800
N       -0.56320287       1.07675447      -0.76501741
C       -0.04790060      -0.11191941      -0.35779846
C       -0.85985044      -1.25376491      -0.32066719
C       -0.35014035      -2.47946488       0.06378684
C        0.97912942      -2.59932630       0.44903317
C        1.76737992      -1.46726859       0.42453294
F        3.04019129      -1.60053153       0.79705517
C        1.30012502      -0.22262832       0.02420510
C        2.11678898       1.00530938      -0.02977705
N        3.39797335       0.88623882       0.35749467
O        1.64843745       2.05413287      -0.41122721
H        0.15871958       1.83295683      -0.73569251
H       -1.91765212      -1.15896346      -0.60072952
H       -1.00014531      -3.34732312       0.08268368
H        1.38390874      -3.55200032       0.77454407
H        3.99190997       1.69389631       0.35447598
H        3.77846097       0.01369522       0.68378041
23
Properties=species:S:1:pos:R:3 pbc="F F F"
N       -2.00208753       1.22646353       1.88638915
C       -2.54043016       1.19545580       0.86376066
C       -3.20999164       1.07706724      -0.40960855
C       -3.65825884       2.35022125      -0.90207829
N       -4.02344253       3.37185799      -1.26337895
N       -3.38655876       0.00663042      -0.96678445
N       -0.56385713       1.07723802      -0.76555123
C       -0.04819791      -0.11212167      -0.35831928
C       -0.86057767      -1.25352390      -0.32085029
C       -0.35023090      -2.47866918       0.06396765
C        0.97893774      -2.59926704       0.44915228
C        1.76754056      -1.46739940       0.42475664
F        3.03917809      -1.59797748       0.79655210
C        1.30013032      -0.22277696       0.02418323
C        2.11651785       1.00495831      -0.02951539
N        3.39791098       0.88618561       0.35759349
O        1.64640112       2.05273683      -0.41082426
H        0.16030041       1.83243808      -0.73551193
H       -1.91725514      -1.15865715      -0.60025367
H       -1.00002771      -3.34683187       0.08295448
H        1.38371188      -3.55159718       0.77469687
H        3.99158048       1.69373497       0.35509093
H        3.77870647       0.01383378       0.68357883
23
Properties=species:S:1:pos:R:3 pbc="F F F"
N       -2.00215145       1.22583045       1.88496160
C       -2.53774112       1.19545520       0.86302735
C       -3.20936088       1.07626655      -0.40962428
C       -3.65834618       2.34987052      -0.90156724
N       -4.02380774       3.37163070      -1.26274650
N       -3.38622416       0.00617162      -0.96674295
N       -0.56453904       1.07772595      -0.76616629
C       -0.04848374      -0.11234676      -0.35887149
C       -0.86129798      -1.25328239      -0.32103161
C       -0.35031123      -2.47787692       0.06414872
C        0.97875497      -2.59919897       0.44927568
C        1.76773970      -1.46753828       0.42498621
F        3.03820625      -1.59550630       0.79607225
C        1.30016464      -0.22294193       0.02417153
C        2.11627234       1.00460086      -0.02924358
N        3.39787289       0.88614771       0.35769862
O        1.64435078       2.05129276      -0.41039651
H        0.16189697       1.83193254      -0.73533176
H       -1.91688699      -1.15833980      -0.59980031
H       -0.99989915      -3.34633845       0.08322961
H        1.38352502      -3.55117805       0.77485162
H        3.99126358       1.69361778       0.35572038
H        3.77900252       0.01400522       0.68337894
23
Properties=species:S:1:pos:R:3 pbc="F F F"
N       -2.00217814       1.22525182       1.88358107
C       -2.53517339       1.19548517       0.86235846
C       -3.20867406       1.07539927      -0.40964704
C       -3.65847750       2.34952181      -0.90105985
N       -4.02415689       3.37137781      -1.26211724
N       -3.38605639       0.00575904      -0.96674218
N       -0.56526188       1.07822637      -0.76688304
C       -0.04875850      -0.11259714      -0.35945494
C       -0.86201058      -1.25304151      -0.32121056
C       -0.35038197      -2.47709212       0.06432777
C        0.97858103      -2.59912222       0.44940267
C        1.76797864      -1.46768702       0.42521992
F        3.03728111      -1.59312010       0.79561460
C        1.30022558      -0.22312031       0.02416785
C        2.11605150       1.00423675      -0.02896245
N        3.39785964       0.88612392       0.35780950
O        1.64229237       2.04980361      -0.40994374
H        0.16351049       1.83144330      -0.73514852
H       -1.91654716      -1.15801485      -0.59937144
H       -0.99976034      -3.34584364       0.08350826
H        1.38334789      -3.55074123       0.77500743
H        3.99096065       1.69354370       0.35636360
H        3.77934791       0.01420757       0.68317987
23
Properties=species:S:1:pos:R:3 pbc="F F F"
N       -2.00217182       1.22473026       1.88225571
C       -2.53275121       1.19553697       0.86176036
C       -3.20793266       1.07446688      -0.40967452
C       -3.65865300       2.34917658      -0.90055751
N       -4.02449162       3.37109916      -1.26148724
N       -3.38602253       0.00539925      -0.96676854
N       -0.56603763       1.07874488      -0.76771975
C       -0.04902283      -0.11287431      -0.36006973
C       -0.86271450      -1.25280248      -0.32138690
C       -0.35044309      -2.47631814       0.06450248
C        0.97841588      -2.59903653       0.44953224
C        1.76825832      -1.46784717       0.42545565
F        3.03640728      -1.59081960       0.79517740
C        1.30031074      -0.22330883       0.02416968
C        2.11585438       1.00386497      -0.02867282
N        3.39787279       0.88611243       0.35792573
O        1.64023115       2.04827248      -0.40946637
H        0.16514042       1.83097305      -0.73495943
H       -1.91623466      -1.15768706      -0.59896925
H       -0.99961157      -3.34534781       0.08378950
H        1.38318013      -3.55028465       0.77516317
H        3.99067346       1.69351120       0.35701952
H        3.77974256       0.01443847       0.68298062
23
Properties=species:S:1:pos:R:3 pbc="F F F"
N       -2.00213796       1.22426665       1.88099399
C       -2.53049716       1.19560033       0.86123539
C       -3.20714590       1.07347917      -0.40970354
C       -3.65887261       2.34883570      -0.90006165
N       -4.02481545       3.37079568      -1.26085346
N       -3.38608808       0.00509675      -0.96680854
N       -0.56687176       1.07928447      -0.76868585
C       -0.04927789      -0.11317854      -0.36071642
C       -0.86340879      -1.25256685      -0.32156072
C       -0.35049393      -2.47555819       0.06467056
C        0.97825974      -2.59894148       0.44966307
C        1.76857952      -1.46802018       0.42569093
F        3.03558877      -1.58860461       0.79475826
C        1.30041754      -0.22350408       0.02417439
C        2.11568035       1.00348350      -0.02837543
N        3.39791567       0.88611103       0.35804713
O        1.63817167       2.04670326      -0.40896578
H        0.16678356       1.83052355      -0.73476342
H       -1.91594852      -1.15736322      -0.59859578
H       -0.99945296      -3.34485151       0.08407228
H        1.38302135      -3.54980637       0.77531761
H        3.99040433       1.69351896       0.35768677
H        3.78018853       0.01469599       0.68278022
23
Properties=species:S:1:pos:R:3 pbc="F F F"
N       -2.00208305       1.22386073       1.87980574
C       -2.52842783       1.19566804       0.86078151
C       -3.20632830       1.07245155      -0.40973141
C       -3.65913443       2.34849945      -0.89957363
N       -4.02513427       3.37047006      -1.26021388
N       -3.38622072       0.00485391      -0.96685059
N       -0.56775930       1.07984449      -0.76977577
C       -0.04952503      -0.11351015      -0.36139541
C       -0.86409285      -1.25233665      -0.32173253
C       -0.35053366      -2.47481553       0.06482971
C        0.97811277      -2.59883641       0.44979333
C        1.76894232      -1.46820739       0.42592273
F        3.03482903      -1.58647445       0.79435407
C        1.30054253      -0.22370243       0.02417925
C        2.11552880       1.00309042      -0.02807171
N        3.39799146       0.88611788       0.35817285
O        1.63611722       2.04510156      -0.40844516
H        0.16843398       1.83009313      -0.73456198
H       -1.91568830      -1.15705258      -0.59825287
H       -0.99928468      -3.34435551       0.08435529
H        1.38287115      -3.54930476       0.77546920
H        3.99015565       1.69356554       0.35836368
H        3.78068747       0.01497908       0.68257757
