18
Properties=species:S:1:pos:R:3 pbc="F F F"
N       -2.43144894       1.03489995       0.37442800
C       -1.30015099       0.87048101      -0.55318701
C       -0.32917199       2.02900910      -0.33757600
C        0.94227499       1.83994102       0.05797500
F        1.73381495       2.89567709       0.21629199
C        1.54679298       0.56989998       0.24648499
C        0.74395299      -0.55036199       0.01135200
N        1.28249705      -1.79330599       0.15881000
N        0.67761302      -2.78751993      -0.22290000
C       -1.40914702      -1.56933105      -0.45174500
O       -2.17850709      -2.35549808      -0.55777901
C       -0.60976601      -0.44356599      -0.32671499
H        2.18962908      -1.86047006       0.60956502
H        1.17837703      -3.64263391       0.00210400
H       -3.26956606       0.60000801       0.01058600
H       -2.25552893       0.68913102       1.31609905
H       -0.72878301       3.02206111      -0.49864200
H        2.59926510       0.47824401       0.46481600
18
Properties=species:S:1:pos:R:3 pbc="F F F"
N       -2.35632919       1.12155378       0.32666474
C       -1.17332667       0.93546819      -0.49122126
C       -0.24034454       2.06911707      -0.36224425
C        1.03117190       1.88830250       0.02937808
F        1.85785022       3.00070498       0.17706986
C        1.63170569       0.61745786       0.22202644
C        0.83472731      -0.50389624      -0.01078039
N        1.41687676      -1.75247032       0.11958047
N        0.78004464      -2.78340597      -0.26267219
C       -1.30429666      -1.51032986      -0.48419978
O       -2.13859047      -2.33768649      -0.63495322
C       -0.51238073      -0.39006481      -0.33957665
H        2.32160368      -1.81512835       0.56520371
H        1.33528704      -3.67009440      -0.03715036
H       -3.22631085       0.72037076      -0.05088140
H       -2.29508391       0.81686181       1.32832828
H       -0.67347046       3.08812076      -0.54062856
H        2.71086624       0.50511874       0.44605646
