18
Properties=species:S:1:pos:R:3 pbc="F F F"
N       -2.56504512       0.96892297       0.06588100
C       -1.15682399       0.81621099      -0.02058800
C       -0.35943300       1.96640396      -0.00238000
C        1.01477802       1.84201503       0.00912300
F        1.75170004       2.95107293      -0.08010800
C        1.67265403       0.62163198       0.11809400
C        0.88289303      -0.53044701      -0.01462200
N        1.40347397      -1.80321002       0.07925400
N        0.73009598      -2.80972290      -0.46460301
C       -1.31526697      -1.60079801      -0.53003299
O       -2.38057995      -1.93750298      -0.14368699
C       -0.51787603      -0.42122701      -0.14745000
H        2.12498808      -1.97288406       0.77520800
H        1.05900502      -3.65783191       0.01031500
H       -3.04926801       0.19729599      -0.42373100
H       -2.82142496       0.87921298       1.05230796
H       -0.84157598       2.92716098      -0.00416400
H        2.74985099       0.59035999       0.24114899
18
Properties=species:S:1:pos:R:3 pbc="F F F"
N       -2.35632919       1.12155378       0.32666474
C       -1.17332667       0.93546819      -0.49122126
C       -0.24034454       2.06911707      -0.36224425
C        1.03117190       1.88830250       0.02937808
F        1.85785022       3.00070498       0.17706986
C        1.63170569       0.61745786       0.22202644
C        0.83472731      -0.50389624      -0.01078039
N        1.41687676      -1.75247032       0.11958047
N        0.78004464      -2.78340597      -0.26267219
C       -1.30429666      -1.51032986      -0.48419978
O       -2.13859047      -2.33768649      -0.63495322
C       -0.51238073      -0.39006481      -0.33957665
H        2.32160368      -1.81512835       0.56520371
H        1.33528704      -3.67009440      -0.03715036
H       -3.22631085       0.72037076      -0.05088140
H       -2.29508391       0.81686181       1.32832828
H       -0.67347046       3.08812076      -0.54062856
H        2.71086624       0.50511874       0.44605646
