18
Properties=species:S:1:pos:R:3 pbc="F F F"
N       -2.36720085       1.11759606       0.33261246
C       -1.15739289       0.94153483      -0.43803666
C       -0.20686731       2.05997659      -0.36454802
C        1.02276316       1.87712486       0.03319300
F        1.86144017       2.98186515       0.17299732
C        1.61653729       0.63610415       0.22350557
C        0.82835650      -0.50954316      -0.01157235
N        1.41936744      -1.75641871       0.12003975
N        0.77957588      -2.79466143      -0.26181452
C       -1.28295629      -1.51199318      -0.46985469
O       -2.15851451      -2.32485139      -0.66320082
C       -0.51404160      -0.39406387      -0.34493205
H        2.33373306      -1.81669020       0.55958978
H        1.34601846      -3.68142176      -0.04018626
H       -3.22522850       0.74336318      -0.07206790
H       -2.32711156       0.84938932       1.31777142
H       -0.67931945       3.08295462      -0.54053445
H        2.71084098       0.49973495       0.44703843
18
Properties=species:S:1:pos:R:3 pbc="F F F"
N       -2.36312356       1.11858983       0.32954528
C       -1.15963980       0.93938133      -0.45023554
C       -0.21576464       2.06118659      -0.36430844
C        1.02450421       1.87869617       0.03418279
F        1.86529815       2.99493242       0.17354172
C        1.61925200       0.63228082       0.22539033
C        0.82969328      -0.50913968      -0.00991259
N        1.42026883      -1.75772646       0.12143170
N        0.78241867      -2.79744332      -0.26134668
C       -1.28736778      -1.51375895      -0.47148538
O       -2.15962960      -2.32776331      -0.66095320
C       -0.51444705      -0.39468796      -0.34452636
H        2.33243912      -1.81774227       0.56034690
H        1.34716366      -3.67988904      -0.03916157
H       -3.22754992       0.74033550      -0.07053797
H       -2.32633110       0.84868817       1.31950041
H       -0.67870459       3.08313612      -0.53956787
H        2.71152012       0.50092404       0.44809647
18
Properties=species:S:1:pos:R:3 pbc="F F F"
N       -2.36157598       1.12067477       0.32709244
C       -1.16161652       0.93846592      -0.45681859
C       -0.22183666       2.06198438      -0.36382560
C        1.02621159       1.88029924       0.03438716
F        1.86613571       3.00047928       0.17385789
C        1.62148380       0.62890495       0.22626473
C        0.83084640      -0.50874926      -0.00904003
N        1.42122515      -1.75823089       0.12196345
N        0.78368195      -2.79846584      -0.26151153
C       -1.29050920      -1.51428181      -0.47286015
O       -2.15900229      -2.32946024      -0.65852522
C       -0.51499594      -0.39533319      -0.34417388
H        2.33146088      -1.81775007       0.56101622
H        1.34834933      -3.67933950      -0.03881631
H       -3.22845761       0.73787306      -0.06843061
H       -2.32555161       0.84814958       1.32024079
H       -0.67836764       3.08324533      -0.53931867
H        2.71251862       0.50153428       0.44849791
18
Properties=species:S:1:pos:R:3 pbc="F F F"
N       -2.36079050       1.12242511       0.32544408
C       -1.16319644       0.93793787      -0.46156006
C       -0.22628537       2.06277159      -0.36328579
C        1.02759833       1.88169370       0.03417668
F        1.86578004       3.00277257       0.17420962
C        1.62337708       0.62621178       0.22653564
C        0.83182221      -0.50830158      -0.00858757
N        1.42192195      -1.75821815       0.12203838
N        0.78446766      -2.79865832      -0.26173285
C       -1.29299539      -1.51425395      -0.47419823
O       -2.15769763      -2.33065046      -0.65608782
C       -0.51523148      -0.39550131      -0.34347975
H        2.33065287      -1.81751587       0.56154138
H        1.34863825      -3.67899021      -0.03872413
H       -3.22873691       0.73578849      -0.06637545
H       -2.32434578       0.84691016       1.32089272
H       -0.67810260       3.08360434      -0.53936734
H        2.71312370       0.50197426       0.44856048
18
Properties=species:S:1:pos:R:3 pbc="F F F"
N       -2.36029501       1.12360815       0.32444245
C       -1.16454263       0.93756385      -0.46549930
C       -0.22966846       2.06358379      -0.36279038
C        1.02863937       1.88284446       0.03375576
F        1.86498746       3.00366211       0.17460204
C        1.62500246       0.62408677       0.22643560
C        0.83260949      -0.50782838      -0.00842187
N        1.42230736      -1.75792380       0.12187428
N        0.78488112      -2.79826775      -0.26193015
C       -1.29506090      -1.51398007      -0.47552212
O       -2.15606821      -2.33164933      -0.65367628
C       -0.51515501      -0.39521908      -0.34266677
H        2.32986389      -1.81721696       0.56197946
H        1.34825784      -3.67853680      -0.03867660
H       -3.22875365       0.73390385      -0.06445214
H       -2.32257567       0.84493535       1.32165052
H       -0.67782373       3.08408940      -0.53954303
H        2.71339430       0.50234442       0.44843851
18
Properties=species:S:1:pos:R:3 pbc="F F F"
N       -2.35991360       1.12428038       0.32392891
C       -1.16576555       0.93726335      -0.46904389
C       -0.23227267       2.06439251      -0.36239488
C        1.02940653       1.88380885       0.03323013
F        1.86406787       3.00390217       0.17500159
C        1.62639315       0.62242067       0.22610133
C        0.83322715      -0.50734036      -0.00845847
N        1.42237796      -1.75745658       0.12158097
N        0.78494902      -2.79736584      -0.26211721
C       -1.29682843      -1.51358692      -0.47682191
O       -2.15423201      -2.33256516      -0.65128335
C       -0.51489108      -0.39466516      -0.34189357
H        2.32903701      -1.81690382       0.56237846
H        1.34739840      -3.67794342      -0.03859685
H       -3.22865157       0.73210900      -0.06261477
H       -2.32024592       0.84233371       1.32255710
H       -0.67749477       3.08463166      -0.53976616
H        2.71343852       0.50268495       0.44821257
18
Properties=species:S:1:pos:R:3 pbc="F F F"
N       -2.35956036       1.12454474       0.32377764
C       -1.16692686       0.93699864      -0.47237850
C       -0.23429287       2.06517258      -0.36212114
C        1.02997201       1.88464466       0.03265183
F        1.86313140       3.00380932       0.17538193
C        1.62757278       0.62111716       0.22561854
C        0.83370399      -0.50684094      -0.00863615
N        1.42215220      -1.75687447       0.12122526
N        0.78471730      -2.79603508      -0.26229610
C       -1.29836281      -1.51313324      -0.47808247
O       -2.15224206      -2.33343143      -0.64890376
C       -0.51452875      -0.39397768      -0.34122874
H        2.32815700      -1.81659507       0.56276820
H        1.34619257      -3.67720783      -0.03846775
H       -3.22848705       0.73035637      -0.06083311
H       -2.31742957       0.83923353       1.32358929
H       -0.67709926       3.08520031      -0.53999367
H        2.71333034       0.50301845       0.44792869
18
Properties=species:S:1:pos:R:3 pbc="F F F"
N       -2.35915303       1.12451459       0.32387773
C       -1.16806279       0.93674509      -0.47559722
C       -0.23587690       2.06591067      -0.36196393
C        1.03038574       1.88538908       0.03205202
F        1.86221431       3.00353380       0.17573103
C        1.62856308       0.62009657       0.22504578
C        0.83406449      -0.50633339      -0.00890961
N        1.42166278      -1.75621438       0.12085240
N        0.78423996      -2.79436139      -0.26246336
C       -1.29970817      -1.51264939      -0.47929043
O       -2.15013231      -2.33425574      -0.64653572
C       -0.51412487      -0.39323905      -0.34069066
H        2.32722459      -1.81629965       0.56316559
H        1.34473685      -3.67634959      -0.03829106
H       -3.22828378       0.72862389      -0.05909509
H       -2.31422539       0.83575544       1.32469848
H       -0.67663649       3.08577715      -0.54020198
H        2.71311193       0.50335631       0.44761602
18
Properties=species:S:1:pos:R:3 pbc="F F F"
N       -2.35865672       1.12426619       0.32415693
C       -1.16919322       0.93648765      -0.47875234
C       -0.23713489       2.06660374      -0.36190519
C        1.03068094       1.88606444       0.03145249
F        1.86132856       3.00315582       0.17604636
C        1.62938692       0.61929941       0.22442397
C        0.83432899      -0.50581999      -0.00924648
N        1.42094844      -1.75550505       0.12048895
N        0.78357484      -2.79242542      -0.26261652
C       -1.30089300      -1.51215004      -0.48043426
O       -2.14792931      -2.33503418      -0.64418231
C       -0.51371448      -0.39249283      -0.34027592
H        2.32624768      -1.81601894       0.56357773
H        1.34310699      -3.67539197      -0.03807737
H       -3.22804972       0.72689850      -0.05739678
H       -2.31073077       0.83200529       1.32582845
H       -0.67611313       3.08635256      -0.54038002
H        2.71281187       0.50370483       0.44729231
18
Properties=species:S:1:pos:R:3 pbc="F F F"
N       -2.35807787       1.12384604       0.32456874
C       -1.17032782       0.93621812      -0.48187097
C       -0.23814599       2.06725507      -0.36192430
C        1.03088226       1.88668532       0.03086910
F        1.86047874       3.00271951       0.17633006
C        1.63006725       0.61868193       0.22378254
C        0.83451471      -0.50530312      -0.00962354
N        1.42004734      -1.75476883       0.12014889
N        0.78277336      -2.79029266      -0.26275262
C       -1.30193402      -1.51164372      -0.48150473
O       -2.14565512      -2.33575874      -0.64184793
C       -0.51331843      -0.39176193      -0.33997440
H        2.32523686      -1.81575112       0.56400637
H        1.34136201      -3.67435611      -0.03783868
H       -3.22778666       0.72517128      -0.05573675
H       -2.30703182       0.82806988       1.32692373
H       -0.67553738       3.08692212      -0.54052244
H        2.71245259       0.50406695       0.44696694
18
Properties=species:S:1:pos:R:3 pbc="F F F"
N       -2.35743026       1.12329116       0.32507553
C       -1.17147082       0.93593159      -0.48496478
C       -0.23896706       2.06787003      -0.36200174
C        1.03100914       1.88726125       0.03031346
F        1.85966592       3.00224771       0.17658699
C        1.63062513       0.61821074       0.22314318
C        0.83463645      -0.50478584      -0.01002327
N        1.41899330      -1.75402211       0.11983965
N        0.78187443      -2.78800955      -0.26286756
C       -1.30284564      -1.51113725      -0.48249718
O       -2.14333020      -2.33642034      -0.63953644
C       -0.51294931      -0.39105950      -0.33977423
H        2.32420283      -1.81549502       0.56445138
H        1.33954467      -3.67325894      -0.03758379
H       -3.22749487       0.72343562      -0.05411370
H       -2.30319844       0.82401458       1.32793501
H       -0.67491677       3.08748340      -0.54062540
H        2.71205150       0.50444247       0.44664289
18
Properties=species:S:1:pos:R:3 pbc="F F F"
N       -2.35672726       1.12263047       0.32564800
C       -1.17262377       0.93562529      -0.48803584
C       -0.23963965       2.06845395      -0.36212021
C        1.03107756       1.88779868       0.02979356
F        1.85888931       3.00175138       0.17682272
C        1.63107929       0.61785990       0.22252181
C        0.83470733      -0.50427110      -0.01043187
N        1.41781484      -1.75327647       0.11956480
N        0.78090609      -2.78560917      -0.26295803
C       -1.30364160      -1.51063658      -0.48341026
O       -2.14097510      -2.33700916      -0.63725261
C       -0.51261453      -0.39039273      -0.33966313
H        2.32315535      -1.81525039       0.56491236
H        1.33768675      -3.67211351      -0.03731783
H       -3.22717430       0.72168796      -0.05252720
H       -2.29928348       0.81988760       1.32882300
H       -0.67425729       3.08803491      -0.54068532
H        2.71162046       0.50482899       0.44631604
18
Properties=species:S:1:pos:R:3 pbc="F F F"
N       -2.35632919       1.12155378       0.32666474
C       -1.17332667       0.93546819      -0.49122126
C       -0.24034454       2.06911707      -0.36224425
C        1.03117190       1.88830250       0.02937808
F        1.85785022       3.00070498       0.17706986
C        1.63170569       0.61745786       0.22202644
C        0.83472731      -0.50389624      -0.01078039
N        1.41687676      -1.75247032       0.11958047
N        0.78004464      -2.78340597      -0.26267219
C       -1.30429666      -1.51032986      -0.48419978
O       -2.13859047      -2.33768649      -0.63495322
C       -0.51238073      -0.39006481      -0.33957665
H        2.32160368      -1.81512835       0.56520371
H        1.33528704      -3.67009440      -0.03715036
H       -3.22631085       0.72037076      -0.05088140
H       -2.29508391       0.81686181       1.32832828
H       -0.67347046       3.08812076      -0.54062856
H        2.71086624       0.50511874       0.44605646
18
Properties=species:S:1:pos:R:3 pbc="F F F"
N       -2.35553451       1.12074584       0.32749658
C       -1.17430609       0.93513383      -0.49429069
C       -0.24080789       2.06969877      -0.36234914
C        1.03116487       1.88883818       0.02898316
F        1.85685246       2.99980429       0.17726159
C        1.63203897       0.61725773       0.22152475
C        0.83472494      -0.50337628      -0.01113011
N        1.41560196      -1.75175450       0.11948104
N        0.77909463      -2.78085831      -0.26257358
C       -1.30489976      -1.50984857      -0.48491026
O       -2.13623870      -2.33808150      -0.63271638
C       -0.51211698      -0.38952309      -0.33954584
H        2.32013524      -1.81501596       0.56553278
H        1.33348811      -3.66872017      -0.03677311
H       -3.22570407       0.71864655      -0.04913339
H       -2.29097672       0.81312096       1.32786259
H       -0.67262782       3.08835330      -0.54050814
H        2.71011134       0.50557893       0.44578814
18
Properties=species:S:1:pos:R:3 pbc="F F F"
N       -2.35474011       1.11978481       0.32846592
C       -1.17523716       0.93472140      -0.49735089
C       -0.24120072       2.07020017      -0.36246622
C        1.03113637       1.88928252       0.02862584
F        1.85588198       2.99880715       0.17746472
C        1.63232436       0.61705665       0.22105847
C        0.83469665      -0.50293556      -0.01147168
N        1.41428299      -1.75112677       0.11942957
N        0.77814645      -2.77835111      -0.26243171
C       -1.30542487      -1.50945385      -0.48555245
O       -2.13391860      -2.33843595      -0.63055436
C       -0.51189897      -0.38909626      -0.33957575
H        2.31859112      -1.81485921       0.56584245
H        1.33157292      -3.66657797      -0.03643542
H       -3.22494201       0.71691914      -0.04739820
H       -2.28685190       0.80958896       1.32718951
H       -0.67176559       3.08848137      -0.54037694
H        2.70934710       0.50599452       0.44553715
18
Properties=species:S:1:pos:R:3 pbc="F F F"
N       -2.35404661       1.11863497       0.32959641
C       -1.17607978       0.93429179      -0.50039604
C       -0.24151860       2.07067425      -0.36258847
C        1.03111546       1.88968181       0.02830795
F        1.85495471       2.99776296       0.17767226
C        1.63259466       0.61689687       0.22062987
C        0.83466866      -0.50252897      -0.01180102
N        1.41296185      -1.75053582       0.11943213
N        0.77723735      -2.77586864      -0.26224129
C       -1.30585699      -1.50909871      -0.48612692
O       -2.13162462      -2.33869601      -0.62848032
C       -0.51170561      -0.38873544      -0.33965677
H        2.31706361      -1.81468713       0.56615907
H        1.32921994      -3.66431581      -0.03624354
H       -3.22400622       0.71528139      -0.04573341
H       -2.28271198       0.80627178       1.32639800
H       -0.67086879       3.08855801      -0.54023076
H        2.70860295       0.50641270       0.44530286
18
Properties=species:S:1:pos:R:3 pbc="F F F"
N       -2.35346378       1.11732415       0.33073566
C       -1.17685983       0.93386746      -0.50341313
C       -0.24179183       2.07113445      -0.36271296
C        1.03108911       1.89004410       0.02802912
F        1.85404751       2.99668259       0.17788331
C        1.63283383       0.61678780       0.22023740
C        0.83462797      -0.50214566      -0.01211674
N        1.41162995      -1.74996314       0.11948635
N        0.77635159      -2.77341636      -0.26200753
C       -1.30621696      -1.50876983      -0.48663590
O       -2.12938453      -2.33884659      -0.62650082
C       -0.51155125      -0.38842273      -0.33978222
H        2.31554970      -1.81451391       0.56648256
H        1.32680241      -3.66202848      -0.03606633
H       -3.22298378       0.71371167      -0.04416560
H       -2.27858884       0.80310903       1.32553275
H       -0.66995950       3.08859885      -0.54006955
H        2.70786823       0.50684659       0.44508364
18
Properties=species:S:1:pos:R:3 pbc="F F F"
N       -2.35292828       1.11592614       0.33183661
C       -1.17759871       0.93345328      -0.50639096
C       -0.24203211       2.07158076      -0.36283746
C        1.03105674       1.89036722       0.02778899
F        1.85315248       2.99556490       0.17809981
C        1.63303925       0.61672481       0.21987975
C        0.83457580      -0.50178520      -0.01241748
N        1.41028919      -1.74940283       0.11958739
N        0.77548452      -2.77100355      -0.26173750
C       -1.30650938      -1.50846559      -0.48708117
O       -2.12720629      -2.33888610      -0.62461457
C       -0.51143405      -0.38815207      -0.33994499
H        2.31405377      -1.81434642       0.56681187
H        1.32436472      -3.65970996      -0.03589225
H       -3.22191612       0.71216893      -0.04268248
H       -2.27449277       0.80005939       1.32460895
H       -0.66904437       3.08860724      -0.53989356
H        2.70714560       0.50729905       0.44487904
18
Properties=species:S:1:pos:R:3 pbc="F F F"
N       -2.35241552       1.11448175       0.33289218
C       -1.17831618       0.93304955      -0.50932541
C       -0.24224551       2.07201236      -0.36296148
C        1.03101883       1.89065138       0.02758537
F        1.85226424       2.99440918       0.17832293
C        1.63321224       0.61670240       0.21955453
C        0.83451484      -0.50144621      -0.01270349
N        1.40894233      -1.74885149       0.11972819
N        0.77463305      -2.76863587      -0.26143992
C       -1.30673710      -1.50818488      -0.48746599
O       -2.12509291      -2.33881324      -0.62281762
C       -0.51134990      -0.38791768      -0.34013902
H        2.31258032      -1.81418562       0.56714534
H        1.32192824      -3.65736343      -0.03571988
H       -3.22081804       0.71062962      -0.04127068
H       -2.27042987       0.79710169       1.32363171
H       -0.66812746       3.08858680      -0.53970435
H        2.70643839       0.50777367       0.44468758
18
Properties=species:S:1:pos:R:3 pbc="F F F"
N       -2.35191712       1.11301512       0.33389972
C       -1.17902769       0.93265429      -0.51221614
C       -0.24243481       2.07242832      -0.36308415
C        1.03097596       1.89089843       0.02741600
F        1.85137809       2.99321483       0.17855419
C        1.63335585       0.61671548       0.21925982
C        0.83444760      -0.50112678      -0.01297489
N        1.40759275      -1.74830792       0.11990225
N        0.77379471      -2.76631762      -0.26112227
C       -1.30690371      -1.50792687      -0.48779346
O       -2.12304524      -2.33862636      -0.62110374
C       -0.51129528      -0.38771489      -0.34035990
H        2.31113297      -1.81403021       0.56748246
H        1.31950855      -3.65499534      -0.03554884
H       -3.21969533       0.70908065      -0.03992074
H       -2.26640429       0.79422416       1.32260437
H       -0.66721182       3.08854080      -0.53950280
H        2.70574880       0.50827391       0.44450810
18
Properties=species:S:1:pos:R:3 pbc="F F F"
N       -2.35143091       1.11154367       0.33485719
C       -1.17974438       0.93226509      -0.51506428
C       -0.24260121       2.07282827      -0.36320442
C        1.03092885       1.89111120       0.02727858
F        1.85048974       2.99198139       0.17879494
C        1.63347391       0.61675967       0.21899406
C        0.83437615      -0.50082494      -0.01323168
N        1.40624457      -1.74777254       0.12010404
N        0.77296729      -2.76405267      -0.26079041
C       -1.30701373      -1.50769127      -0.48806640
O       -2.12106308      -2.33832446      -0.61946564
C       -0.51126729      -0.38753973      -0.34060402
H        2.30971495      -1.81387836       0.56782324
H        1.31711744      -3.65261330      -0.03537866
H       -3.21855129       0.70751392      -0.03862668
H       -2.26241901       0.79141957       1.32152971
H       -0.66630005       3.08847207      -0.53928895
H        2.70507805       0.50880242       0.44433938
18
Properties=species:S:1:pos:R:3 pbc="F F F"
N       -2.35095712       1.11008181       0.33576284
C       -1.18047410       0.93187950      -0.51787140
C       -0.24274505       2.07321234      -0.36332124
C        1.03087838       1.89129292       0.02717082
F        1.84959530       2.99070874       0.17904577
C        1.63357030       0.61683109       0.21875579
C        0.83430211      -0.50053890      -0.01347393
N        1.40490209      -1.74724662       0.12032885
N        0.77214856      -2.76184414      -0.26044873
C       -1.30707216      -1.50747824      -0.48828724
O       -2.11914528      -2.33790745      -0.61789582
C       -0.51126327      -0.38738863      -0.34086794
H        2.30832904      -1.81372814       0.56816784
H        1.31476337      -3.65022452      -0.03520877
H       -3.21738832       0.70592393      -0.03738473
H       -2.25847621       0.78868316       1.32040990
H       -0.66539416       3.08838247      -0.53906198
H        2.70442651       0.50936068       0.44417998
18
Properties=species:S:1:pos:R:3 pbc="F F F"
N       -2.35049715       1.10864247       0.33661527
C       -1.18122233       0.93149527      -0.52063892
C       -0.24286645       2.07358108      -0.36343366
C        1.03082561       1.89144686       0.02709051
F        1.84869136       2.98939746       0.17930620
C        1.63364879       0.61692625       0.21854365
C        0.83422680      -0.50026719      -0.01370176
N        1.40356946      -1.74673162       0.12057293
N        0.77133685      -2.75969533      -0.26010060
C       -1.30708427      -1.50728846      -0.48845796
O       -2.11729010      -2.33737648      -0.61638690
C       -0.51128073      -0.38725843      -0.34114847
H        2.30697784      -1.81357776       0.56851636
H        1.31245220      -3.64783544      -0.03503853
H       -3.21620833       0.70430699      -0.03619270
H       -2.25457823       0.78601249       1.31924669
H       -0.66449532       3.08827278      -0.53882037
H        2.70379399       0.50994906       0.44402827
18
Properties=species:S:1:pos:R:3 pbc="F F F"
N       -2.35005297       1.10723763       0.33741360
C       -1.18199280       0.93111056      -0.52336764
C       -0.24296548       2.07393533      -0.36354092
C        1.03077173       1.89157618       0.02703553
F        1.84777501       2.98804875       0.17957484
C        1.63371287       0.61704204       0.21835622
C        0.83415130      -0.50000862      -0.01391542
N        1.40225041      -1.74622873       0.12083333
N        0.77053141      -2.75761011      -0.25974867
C       -1.30705533      -1.50712319      -0.48858006
O       -2.11549577      -2.33673433      -0.61493200
C       -0.51131739      -0.38714651      -0.34144278
H        2.30566372      -1.81342567       0.56886876
H        1.31018747      -3.64545098      -0.03486729
H       -3.21501291       0.70266094      -0.03504949
H       -2.25072761       0.78340699       1.31804163
H       -0.66360359       3.08814267      -0.53856209
H        2.70317991       0.51056704       0.44388245
18
Properties=species:S:1:pos:R:3 pbc="F F F"
N       -2.34962693       1.10587829       0.33815756
C       -1.18278771       0.93072417      -0.52605734
C       -0.24304223       2.07427605      -0.36364259
C        1.03071813       1.89168408       0.02700372
F        1.84684427       2.98666494       0.17984971
C        1.63376572       0.61717565       0.21819200
C        0.83407659      -0.49976241      -0.01411533
N        1.40094837      -1.74573862       0.12110776
N        0.76973225      -2.75559234      -0.25939480
C       -1.30699050      -1.50698470      -0.48865457
O       -2.11376088      -2.33598575      -0.61352503
C       -0.51137130      -0.38705109      -0.34174866
H        2.30438886      -1.81327095       0.56922481
H        1.30797067      -3.64307433      -0.03469443
H       -3.21380351       0.70098486      -0.03395471
H       -2.24692710       0.78086780       1.31679641
H       -0.66271823       3.08799098      -0.53828513
H        2.70258353       0.51121337       0.44374062
18
Properties=species:S:1:pos:R:3 pbc="F F F"
N       -2.34922131       1.10457394       0.33884775
C       -1.18360814       0.93033529      -0.52870720
C       -0.24309671       2.07460403      -0.36373857
C        1.03066622       1.89177385       0.02699274
F        1.84589873       2.98524988       0.18012865
C        1.63381003       0.61732457       0.21804935
C        0.83400345      -0.49952811      -0.01430217
N        1.39966611      -1.74526166       0.12139426
N        0.76893984      -2.75364506      -0.25904030
C       -1.30689480      -1.50687626      -0.48868205
O       -2.11208454      -2.33513668      -0.61216065
C       -0.51144080      -0.38697113      -0.34206454
H        2.30315481      -1.81311313       0.56958412
H        1.30580184      -3.64070698      -0.03451922
H       -3.21258115       0.69927855      -0.03290801
H       -2.24317915       0.77839697       1.31551307
H       -0.66183815       3.08781594      -0.53798801
H        2.70200372       0.51188599       0.44360078
18
Properties=species:S:1:pos:R:3 pbc="F F F"
N       -2.34884419       1.10335196       0.33947573
C       -1.18444000       0.92995002      -0.53127337
C       -0.24312875       2.07491494      -0.36382762
C        1.03061817       1.89184783       0.02699979
F        1.84495618       2.98383374       0.18040509
C        1.63384743       0.61748379       0.21792830
C        0.83393364      -0.49930901      -0.01447414
N        1.39842631      -1.74480580       0.12168577
N        0.76816831      -2.75180089      -0.25869211
C       -1.30677587      -1.50680271      -0.48866375
O       -2.11049263      -2.33421079      -0.61085579
C       -0.51152311      -0.38690704      -0.34238404
H        2.30198166      -1.81295470       0.56994032
H        1.30371547      -3.63838903      -0.03434375
H       -3.21136759       0.69757216      -0.03192480
H       -2.23954636       0.77603584       1.31421678
H       -0.66097698       3.08761952      -0.53767567
H        2.70144830       0.51257016       0.44346327
18
Properties=species:S:1:pos:R:3 pbc="F F F"
N       -2.34848513       1.10217773       0.34006391
C       -1.18531202       0.92955553      -0.53384105
C       -0.24313926       2.07522014      -0.36391317
C        1.03057375       1.89191172       0.02702308
F        1.84398810       2.98237553       0.18068714
C        1.63388100       0.61765723       0.21782324
C        0.83386537      -0.49909777      -0.01463798
N        1.39718896      -1.74435638       0.12199049
N        0.76739375      -2.75000152      -0.25833945
C       -1.30663500      -1.50676727      -0.48859827
O       -2.10893309      -2.33318189      -0.60956316
C       -0.51162078      -0.38685691      -0.34271810
H        2.30083089      -1.81279013       0.57030543
H        1.30164243      -3.63604377      -0.03416082
H       -3.21012316       0.69580940      -0.03097199
H       -2.23590830       0.77370886       1.31286652
H       -0.66010500       3.08739323      -0.53733728
H        2.70089748       0.51328626       0.44332145
18
Properties=species:S:1:pos:R:3 pbc="F F F"
N       -2.34815149       1.10107539       0.34060390
C       -1.18620977       0.92915918      -0.53636574
C       -0.24312811       2.07551533      -0.36399438
C        1.03053480       1.89196711       0.02706019
F        1.84301480       2.98090641       0.18096948
C        1.63391159       0.61784078       0.21773426
C        0.83380022      -0.49889787      -0.01479209
N        1.39597564      -1.74392145       0.12230168
N        0.76663206      -2.74828076      -0.25798924
C       -1.30648045      -1.50677645      -0.48848581
O       -2.10743407      -2.33207223      -0.60830172
C       -0.51173241      -0.38682204      -0.34306187
H        2.29972203      -1.81262159       0.57067351
H        1.29961973      -3.63371220      -0.03397198
H       -3.20886999       0.69402245      -0.03006538
H       -2.23232767       0.77145984       1.31148837
H       -0.65923601       3.08713874      -0.53697863
H        2.70035910       0.51401934       0.44317546
18
Properties=species:S:1:pos:R:3 pbc="F F F"
N       -2.34784346       1.10004594       0.34109826
C       -1.18713280       0.92876259      -0.53884689
C       -0.24309571       2.07580185      -0.36407219
C        1.03050226       1.89201637       0.02710896
F        1.84204042       2.97943252       0.18125213
C        1.63394079       0.61803351       0.21765939
C        0.83373866      -0.49870890      -0.01493792
N        1.39478587      -1.74350151       0.12261780
N        0.76588657      -2.74664101      -0.25764274
C       -1.30631953      -1.50683524      -0.48832654
O       -2.10599678      -2.33088849      -0.60706892
C       -0.51185857      -0.38680269      -0.34341652
H        2.29865423      -1.81244841       0.57104494
H        1.29764981      -3.63139646      -0.03377570
H       -3.20760984       0.69221560      -0.02920371
H       -2.22880499       0.76929290       1.31008712
H       -0.65836870       3.08685470      -0.53660044
H        2.69983177       0.51476672       0.44302297
18
Properties=species:S:1:pos:R:3 pbc="F F F"
N       -2.34756007       1.09908820       0.34154961
C       -1.18808036       0.92836793      -0.54128430
C       -0.24304228       2.07608120      -0.36414769
C        1.03047695       1.89206129       0.02716742
F        1.84106813       2.97795831       0.18153560
C        1.63397019       0.61823492       0.21759670
C        0.83368124      -0.49853026      -0.01507702
N        1.39361811      -1.74309705       0.12293752
N        0.76516103      -2.74508457      -0.25730156
C       -1.30616096      -1.50694739      -0.48812097
O       -2.10462200      -2.32963735      -0.60586270
C       -0.51200018      -0.38679908      -0.34378357
H        2.29762582      -1.81226952       0.57142035
H        1.29573563      -3.62909878      -0.03357040
H       -3.20634410       0.69039376      -0.02838520
H       -2.22534002       0.76721210       1.30866830
H       -0.65750121       3.08653975      -0.53620361
H        2.69931408       0.51552655       0.44286151
18
Properties=species:S:1:pos:R:3 pbc="F F F"
N       -2.34729920       1.09819924       0.34196047
C       -1.18905140       0.92797790      -0.54367814
C       -0.24296787       2.07635501      -0.36422204
C        1.03045974       1.89210349       0.02723391
F        1.84010007       2.97648675       0.18182053
C        1.63400151       0.61844487       0.21754442
C        0.83362849      -0.49836115      -0.01521091
N        1.39247015      -1.74270843       0.12325983
N        0.76446002      -2.74361357      -0.25696748
C       -1.30601483      -1.50711551      -0.48787021
O       -2.10330980      -2.32832559      -0.60468145
C       -0.51215853      -0.38681128      -0.34416474
H        2.29663434      -1.81208362       0.57180050
H        1.29387998      -3.62682140      -0.03335457
H       -3.20507355       0.68856192      -0.02760773
H       -2.22193207       0.76522124       1.30723817
H       -0.65663177       3.08619278      -0.53578927
H        2.69880472       0.51629735       0.44268871
18
Properties=species:S:1:pos:R:3 pbc="F F F"
N       -2.34705755       1.09737498       0.34233324
C       -1.19004469       0.92759554      -0.54602876
C       -0.24287266       2.07662501      -0.36429630
C        1.03045154       1.89214457       0.02730710
F        1.83913741       2.97501955       0.18210737
C        1.63403634       0.61866342       0.21750094
C        0.83358086      -0.49820061      -0.01534105
N        1.39133931      -1.74233577       0.12358398
N        0.76378983      -2.74222961      -0.25664209
C       -1.30589216      -1.50734137      -0.48757607
O       -2.10205964      -2.32696002      -0.60352408
C       -0.51233508      -0.38683914      -0.34456180
H        2.29567659      -1.81188932       0.57218616
H        1.29208492      -3.62456607      -0.03312680
H       -3.20379818       0.68672487      -0.02686890
H       -2.21858009       0.76332343       1.30580361
H       -0.65575926       3.08581294      -0.53535893
H        2.69830249       0.51707759       0.44250240
18
Properties=species:S:1:pos:R:3 pbc="F F F"
N       -2.34683115       1.09661073       0.34267035
C       -1.19105902       0.92722409      -0.54833670
C       -0.24275718       2.07689318      -0.36437148
C        1.03045340       1.89218623       0.02738600
F        1.83818089       2.97355795       0.18239630
C        1.63407638       0.61889080       0.21746481
C        0.83353883      -0.49804765      -0.01546869
N        1.39022292      -1.74197921       0.12390942
N        0.76315920      -2.74093376      -0.25632622
C       -1.30580538      -1.50762600      -0.48724158
O       -2.10087078      -2.32554804      -0.60239019
C       -0.51253147      -0.38688247      -0.34497642
H        2.29474913      -1.81168552       0.57257812
H        1.29035173      -3.62233450      -0.03288590
H       -3.20251787       0.68488718      -0.02616626
H       -2.21528308       0.76152098       1.30437222
H       -0.65488306       3.08540018      -0.53491455
H        2.69780652       0.51786584       0.44230076
18
Properties=species:S:1:pos:R:3 pbc="F F F"
N       -2.34661522       1.09590103       0.34297454
C       -1.19209322       0.92686669      -0.55060253
C       -0.24262225       2.07716141      -0.36444837
C        1.03046637       1.89222999       0.02746992
F        1.83723109       2.97210258       0.18268734
C        1.63412325       0.61912715       0.21743484
C        0.83350289      -0.49790131      -0.01559483
N        1.38911839      -1.74163874       0.12423589
N        0.76257975      -2.73972766      -0.25601981
C       -1.30576966      -1.50796733      -0.48687182
O       -2.09974210      -2.32409746      -0.60127979
C       -0.51274940      -0.38694097      -0.34541008
H        2.29384818      -1.81147122       0.57297706
H        1.28868070      -3.62012784      -0.03263084
H       -3.20123216       0.68305278      -0.02549742
H       -2.21203984       0.75981501       1.30295194
H       -0.65400252       3.08495480      -0.53445821
H        2.69731575       0.51866110       0.44208218
18
Properties=species:S:1:pos:R:3 pbc="F F F"
N       -2.34640463       1.09524007       0.34324891
C       -1.19314637       0.92652653      -0.55282680
C       -0.24246902       2.07743165      -0.36452747
C        1.03049149       1.89227737       0.02755856
F        1.83628866       2.97065405       0.18298048
C        1.63417852       0.61937269       0.21741022
C        0.83347344      -0.49776055      -0.01572011
N        1.38802349      -1.74131428       0.12456337
N        0.76206767      -2.73861737      -0.25572324
C       -1.30580347      -1.50835852      -0.48647413
O       -2.09867227      -2.32261628      -0.60019303
C       -0.51299069      -0.38701413      -0.34586392
H        2.29296964      -1.81124526       0.57338373
H        1.28707112      -3.61794670      -0.03236076
H       -3.19994069       0.68122501      -0.02486010
H       -2.20884916       0.75820545       1.30155091
H       -0.65311701       3.08447778      -0.53399210
H        2.69682930       0.51946249       0.44184546
18
Properties=species:S:1:pos:R:3 pbc="F F F"
N       -2.34619390       1.09462187       0.34349680
C       -1.19421761       0.92620660      -0.55501001
C       -0.24229897       2.07770575      -0.36460909
C        1.03052972       1.89232987       0.02765181
F        1.83535459       2.96921301       0.18327568
C        1.63424375       0.61962748       0.21739044
C        0.83345086      -0.49762455      -0.01584482
N        1.38693649      -1.74100614       0.12489206
N        0.76163884      -2.73760932      -0.25543698
C       -1.30592579      -1.50878916      -0.48605712
O       -2.09765982      -2.32111255      -0.59913008
C       -0.51325714      -0.38710130      -0.34633874
H        2.29210923      -1.81100655       0.57379887
H        1.28552167      -3.61579196      -0.03207493
H       -3.19864290       0.67940628      -0.02425239
H       -2.20570948       0.75669098       1.30017710
H       -0.65222603       3.08397081      -0.53351844
H        2.69634649       0.52026888       0.44158984
18
Properties=species:S:1:pos:R:3 pbc="F F F"
N       -2.34597718       1.09404054       0.34372141
C       -1.19530606       0.92590961      -0.55715281
C       -0.24211388       2.07798539      -0.36469346
C        1.03058174       1.89238879       0.02774961
F        1.83442999       2.96778008       0.18357283
C        1.63432032       0.61989138       0.21737524
C        0.83343537      -0.49749283      -0.01596909
N        1.38585597      -1.74071517       0.12522221
N        0.76130588      -2.73670770      -0.25516129
C       -1.30615230      -1.50924757      -0.48562909
O       -2.09670318      -2.31959391      -0.59809106
C       -0.51355038      -0.38720181      -0.34683516
H        2.29126240      -1.81075409       0.57422316
H        1.28403028      -3.61366458      -0.03177280
H       -3.19733761       0.67759766      -0.02367275
H       -2.20261839       0.75526899       1.29883791
H       -0.65132938       3.08343618      -0.53303964
H        2.69586642       0.52107905       0.44131478
18
Properties=species:S:1:pos:R:3 pbc="F F F"
N       -2.34574869       1.09349065       0.34392565
C       -1.19641072       0.92563783      -0.55925623
C       -0.24191579       2.07827232      -0.36478087
C        1.03064790       1.89245536       0.02785175
F        1.83351605       2.96635581       0.18387168
C        1.63440945       0.62016408       0.21736444
C        0.83342712      -0.49736523      -0.01609295
N        1.38478093      -1.74044274       0.12555413
N        0.76107750      -2.73591328      -0.25489567
C       -1.30649392      -1.50972280      -0.48519679
O       -2.09580097      -2.31806778      -0.59707610
C       -0.51387171      -0.38731515      -0.34735381
H        2.29042444      -1.81048737       0.57465703
H        1.28259397      -3.61156525      -0.03145411
H       -3.19602349       0.67579885      -0.02312003
H       -2.19957285       0.75393590       1.29754029
H       -0.65042725       3.08287697      -0.53255828
H        2.69538804       0.52189185       0.44101986
18
Properties=species:S:1:pos:R:3 pbc="F F F"
N       -2.34550331       1.09296788       0.34411198
C       -1.19753043       0.92539323      -0.56132153
C       -0.24170687       2.07856849      -0.36487181
C        1.03072832       1.89253078       0.02795785
F        1.83261394       2.96494051       0.18417185
C        1.63451241       0.62044516       0.21735794
C        0.83342630      -0.49724189      -0.01621642
N        1.38371102      -1.74019054       0.12588819
N        0.76095891      -2.73522401      -0.25463867
C       -1.30695750      -1.51020553      -0.48476523
O       -2.09495205      -2.31654184      -0.59608541
C       -0.51422191      -0.38744106      -0.34789539
H        2.28959078      -1.81020654       0.57510072
H        1.28120934      -3.60949449      -0.03111909
H       -3.19469988       0.67400860      -0.02259336
H       -2.19656958       0.75268733       1.29629078
H       -0.64951984       3.08229733      -0.53207711
H        2.69491035       0.52270656       0.44070470
18
Properties=species:S:1:pos:R:3 pbc="F F F"
N       -2.34523684       1.09246928       0.34428244
C       -1.19866363       0.92517729      -0.56335006
C       -0.24148921       2.07887581      -0.36496693
C        1.03082257       1.89261567       0.02806723
F        1.83172443       2.96353337       0.18447278
C        1.63463028       0.62073403       0.21735566
C        0.83343299      -0.49712289      -0.01633942
N        1.38264621      -1.73996014       0.12622478
N        0.76095352      -2.73463613      -0.25438821
C       -1.30754660      -1.51068804      -0.48433803
O       -2.09415496      -2.31502327      -0.59511904
C       -0.51460120      -0.38757926      -0.34846067
H        2.28875672      -1.80991192       0.57555423
H        1.27987300      -3.60745238      -0.03076858
H       -3.19336666       0.67222492      -0.02209194
H       -2.19360589       0.75151862       1.29509580
H       -0.64860661       3.08170187      -0.53159888
H        2.69443188       0.52352317       0.44036885
18
Properties=species:S:1:pos:R:3 pbc="F F F"
N       -2.34494698       1.09199361       0.34443886
C       -1.19980875       0.92499115      -0.56534337
C       -0.24126490       2.07919654      -0.36506716
C        1.03092984       1.89271039       0.02817893
F        1.83084828       2.96213333       0.18477371
C        1.63476409       0.62103014       0.21735752
C        0.83344724      -0.49700855      -0.01646195
N        1.38158684      -1.73975343       0.12656440
N        0.76106519      -2.73414591      -0.25414149
C       -1.30826201      -1.51116478      -0.48391795
O       -2.09340822      -2.31351896      -0.59417702
C       -0.51500946      -0.38772934      -0.34905056
H        2.28791784      -1.80960414       0.57601769
H        1.27858195      -3.60543964      -0.03040391
H       -3.19202527       0.67044562      -0.02161492
H       -2.19068040       0.75042518       1.29396183
H       -0.64768638       3.08109626      -0.53112644
H        2.69395108       0.52434252       0.44001184
18
Properties=species:S:1:pos:R:3 pbc="F F F"
N       -2.34463347       1.09154122       0.34458287
C       -1.20096407       0.92483550      -0.56730318
C       -0.24103614       2.07953309      -0.36517368
C        1.03104880       1.89281506       0.02829176
F        1.82998617       2.96073912       0.18507384
C        1.63491451       0.62133295       0.21736345
C        0.83346896      -0.49689950      -0.01658413
N        1.38053326      -1.73957256       0.12690762
N        0.76129918      -2.73374938      -0.25389480
C       -1.30910134      -1.51163239      -0.48350704
O       -2.09271016      -2.31203507      -0.59325925
C       -0.51544638      -0.38789066      -0.34966607
H        2.28706986      -1.80928386       0.57649123
H        1.27733320      -3.60345717      -0.03002680
H       -3.19067819       0.66866824      -0.02116141
H       -2.18779253       0.74940248       1.29289505
H       -0.64675771       3.08048673      -0.53066276
H        2.69346603       0.52516622       0.43963330
18
Properties=species:S:1:pos:R:3 pbc="F F F"
N       -2.34429774       1.09111373       0.34471607
C       -1.20212770       0.92471042      -0.56923151
C       -0.24080530       2.07988801      -0.36528791
C        1.03117756       1.89292971       0.02840434
F        1.82913884       2.95934978       0.18537241
C        1.63508174       0.62164197       0.21737350
C        0.83349776      -0.49679651      -0.01670602
N        1.37948593      -1.73941999       0.12725514
N        0.76166102      -2.73344239      -0.25364407
C       -1.31005902      -1.51208986      -0.48310679
O       -2.09205909      -2.31057707      -0.59236543
C       -0.51591156      -0.38806250      -0.35030822
H        2.28620877      -1.80895194       0.57697502
H        1.27612326      -3.60150579      -0.02963921
H       -3.18932808       0.66688983      -0.02073065
H       -2.18494156       0.74844601       1.29190096
H       -0.64581932       3.07987996      -0.53021081
H        2.69297451       0.52599661       0.43923321
18
Properties=species:S:1:pos:R:3 pbc="F F F"
N       -2.34394199       1.09071318       0.34484012
C       -1.20329732       0.92461534      -0.57113080
C       -0.24057482       2.08026370      -0.36541142
C        1.03131367       1.89305414       0.02851538
F        1.82830683       2.95796437       0.18566885
C        1.63526534       0.62195685       0.21738785
C        0.83353290      -0.49670038      -0.01682754
N        1.37844531      -1.73929768       0.12760800
N        0.76215370      -2.73322061      -0.25338642
C       -1.31112682      -1.51253781      -0.48271805
O       -2.09145296      -2.30914947      -0.59149471
C       -0.51640456      -0.38824403      -0.35097796
H        2.28533036      -1.80860921       0.57746930
H        1.27494765      -3.59958527      -0.02924310
H       -3.18797605       0.66510663      -0.02032216
H       -2.18212498       0.74755112       1.29098383
H       -0.64487000       3.07928232      -0.52977321
H        2.69247373       0.52683683       0.43881204
18
Properties=species:S:1:pos:R:3 pbc="F F F"
N       -2.34356899       1.09034183       0.34495702
C       -1.20447030       0.92454897      -0.57300378
C       -0.24034689       2.08066275      -0.36554592
C        1.03145459       1.89318843       0.02862371
F        1.82749095       2.95658275       0.18596288
C        1.63546468       0.62227750       0.21740696
C        0.83357351      -0.49661172      -0.01694841
N        1.37741188      -1.73920726       0.12796750
N        0.76277591      -2.73308011      -0.25312131
C       -1.31229504      -1.51297932      -0.48234118
O       -2.09088993      -2.30775634      -0.59064584
C       -0.51692475      -0.38843439      -0.35167601
H        2.28443072      -1.80825660       0.57797451
H        1.27380122      -3.59769450      -0.02884029
H       -3.18662139       0.66331429      -0.01993548
H       -2.17933845       0.74671304       1.29014678
H       -0.64390874       3.07869997      -0.52935208
H        2.69196102       0.52769071       0.43837093
18
Properties=species:S:1:pos:R:3 pbc="F F F"
N       -2.34318173       1.09000163       0.34506921
C       -1.20564364       0.92450925      -0.57485334
C       -0.24012331       2.08108762      -0.36569332
C        1.03159784       1.89333278       0.02872827
F        1.82669213       2.95520512       0.18625456
C        1.63567898       0.62260402       0.21743151
C        0.83361866      -0.49653082      -0.01706830
N        1.37638599      -1.73914937       0.12833520
N        0.76352165      -2.73301703      -0.25285044
C       -1.31355310      -1.51341877      -0.48197617
O       -2.09036789      -2.30640137      -0.58981714
C       -0.51747126      -0.38863272      -0.35240295
H        2.28350609      -1.80789497       0.57849114
H        1.27267773      -3.59583071      -0.02843246
H       -3.18526133       0.66150822      -0.01957011
H       -2.17657592       0.74592687       1.28939179
H       -0.64293474       3.07813789      -0.52894895
H        2.69143387       0.52856234       0.43791151
18
Properties=species:S:1:pos:R:3 pbc="F F F"
N       -2.34278368       1.08969407       0.34517966
C       -1.20681412       0.92449358      -0.57668233
C       -0.23990549       2.08154060      -0.36585593
C        1.03174116       1.89348750       0.02882804
F        1.82591162       2.95383221       0.18654418
C        1.63590750       0.62293669       0.21746223
C        0.83366756      -0.49645787      -0.01718692
N        1.37536843      -1.73912389       0.12871285
N        0.76438111      -2.73302738      -0.25257708
C       -1.31489020      -1.51386108      -0.48162288
O       -2.08988442      -2.30508794      -0.58900681
C       -0.51804281      -0.38883832      -0.35315915
H        2.28255339      -1.80752571       0.57901966
H        1.27157011      -3.59399026      -0.02802120
H       -3.18389187       0.65968433      -0.01922535
H       -2.17383085       0.74518774       1.28872009
H       -0.64194765       3.07759962      -0.52856480
H        2.69089021       0.52945611       0.43743575
18
Properties=species:S:1:pos:R:3 pbc="F F F"
N       -2.34237874       1.08942005       0.34529199
C       -1.20797812       0.92449869      -0.57849358
C       -0.23969429       2.08202349      -0.36603641
C        1.03188255       1.89365275       0.02892196
F        1.82515074       2.95246489       0.18683215
C        1.63614946       0.62327580       0.21749981
C        0.83371965      -0.49639304      -0.01730415
N        1.37436037      -1.73913018       0.12910220
N        0.76534132      -2.73310626      -0.25230530
C       -1.31629536      -1.51431136      -0.48128115
O       -2.08943614      -2.30381862      -0.58821285
C       -0.51863758      -0.38905048      -0.35394469
H        2.28157038      -1.80715089       0.57956039
H        1.27047035      -3.59216875      -0.02760807
H       -3.18250839       0.65783955      -0.01890013
H       -2.17109718       0.74449083       1.28813237
H       -0.64094723       3.07708680      -0.52820011
H        2.69032820       0.53037673       0.43694560
