29
Properties=species:S:1:pos:R:3 pbc="F F F"
N        0.28039801      -3.23470092       1.32983899
C       -0.49646100      -2.21771502       0.97233301
C       -1.90897000      -2.27855802       1.19636905
C       -2.69931793      -1.22058201       0.85641301
C       -2.14638400      -0.02321200       0.31840700
C       -3.06469107       1.13754594       0.09199600
F       -2.56822109       2.01046801      -0.79070002
F       -4.26418877       0.72813398      -0.36013100
F       -3.31299305       1.81598604       1.22541702
C       -0.79956299       0.07034200       0.11040500
C        0.08440300      -1.03374100       0.35980099
C        1.44364905      -1.07937706       0.06026000
O        2.83180308      -2.14594412       1.69888997
C        2.22106910      -0.06620000      -0.59896898
C        3.56312609       0.14496300      -0.19353300
C        4.34293079       1.13862205      -0.76567799
C        3.82945609       1.93315804      -1.78835106
C        2.53915191       1.70506406      -2.26630211
C        1.78029299       0.70635098      -1.69158196
F        0.57069302       0.46432301      -2.22447395
H       -0.11984900      -4.04134893       1.78459501
H        1.29675400      -3.07113099       1.36928499
H       -2.34051609      -3.15137601       1.67405105
H       -3.77082610      -1.27088499       1.02431798
H       -0.36893299       0.99735200      -0.25329700
H        3.92915797      -0.48453400       0.60710597
H        5.35955095       1.29065800      -0.41098300
H        4.42607307       2.72708297      -2.22479391
H        2.10449290       2.29060197      -3.06610894
29
Properties=species:S:1:pos:R:3 pbc="F F F"
N       -0.14844370      -2.84640309       1.62762876
C       -0.94782518      -2.04501734       0.96637689
C       -2.35934809      -2.15665517       1.17421997
C       -3.12444713      -1.05501705       0.98159903
C       -2.55163315       0.09022410       0.49050758
C       -3.39235430       1.27822269       0.16712181
F       -2.89835435       2.08055364      -0.76532220
F       -4.62841513       0.94463993      -0.25310155
F       -3.57237139       2.03563385       1.27085575
C       -1.17572614       0.19755703       0.18075726
C       -0.37800673      -0.91066785       0.22184579
C        0.97816746      -1.13812157      -0.31126192
O        2.19268453      -1.58679789       1.68733155
C        1.69430951       0.07442671      -0.69400388
C        3.03288916       0.20672153      -0.26206813
C        3.85729353       1.24386401      -0.69383179
C        3.40780516       2.16269773      -1.64008734
C        2.09880910       2.04272099      -2.11533272
C        1.27051089       1.04206262      -1.61387455
F        0.10143662       0.90641740      -2.14586267
H       -0.48566736      -3.55659647       2.19753039
H        0.85342280      -2.58251464       1.68123876
H       -2.75851056      -3.07228913       1.57691088
H       -4.19188049      -1.06182992       1.16113952
H       -0.84969677       1.14834452      -0.27171900
H        3.39178331      -0.48064007       0.49164372
H        4.84016013       1.33391762      -0.28823960
H        4.04004203       2.95392591      -1.98010223
H        1.70336623       2.75061991      -2.84190010
