29
Properties=species:S:1:pos:R:3 pbc="F F F"
N        0.30476001      -3.00368690       1.53761005
C       -0.49516800      -2.25609708       0.88787800
C       -1.91695094      -2.37118602       1.10335004
C       -2.67777395      -1.26393199       0.91032702
C       -2.10377789      -0.08859300       0.40854299
C       -2.95822811       1.06188500       0.09899900
F       -2.42722297       1.86435902      -0.83856201
F       -4.18471909       0.70772302      -0.32127899
F       -3.13858390       1.82166803       1.19590795
C       -0.72675103      -0.00571000       0.10454400
C        0.06252000      -1.12167203       0.14702700
C        1.42040896      -1.35583198      -0.38192400
O        2.63673806      -1.79983401       1.62131798
C        2.12964201      -0.14364199      -0.76183701
C        3.46644902      -0.01802500      -0.32858500
C        4.27923679       1.01103997      -0.74553299
C        3.81980491       1.93082595      -1.68920803
C        2.53421307       1.81861401      -2.17759109
C        1.70239496       0.82949501      -1.68098998
F        0.50758398       0.71335900      -2.21659493
H       -0.01990800      -3.74459505       2.13333702
H        1.30585098      -2.74430799       1.59352195
H       -2.30453706      -3.29161811       1.52027702
H       -3.74814391      -1.27338505       1.09420395
H       -0.38867301       0.91831601      -0.35234499
H        3.77378106      -0.72071302       0.44772100
H        5.28074598       1.10745203      -0.34194899
H        4.46573496       2.73416710      -2.02392912
H        2.14266205       2.52527189      -2.89965391
29
Properties=species:S:1:pos:R:3 pbc="F F F"
N       -0.14844370      -2.84640309       1.62762876
C       -0.94782518      -2.04501734       0.96637689
C       -2.35934809      -2.15665517       1.17421997
C       -3.12444713      -1.05501705       0.98159903
C       -2.55163315       0.09022410       0.49050758
C       -3.39235430       1.27822269       0.16712181
F       -2.89835435       2.08055364      -0.76532220
F       -4.62841513       0.94463993      -0.25310155
F       -3.57237139       2.03563385       1.27085575
C       -1.17572614       0.19755703       0.18075726
C       -0.37800673      -0.91066785       0.22184579
C        0.97816746      -1.13812157      -0.31126192
O        2.19268453      -1.58679789       1.68733155
C        1.69430951       0.07442671      -0.69400388
C        3.03288916       0.20672153      -0.26206813
C        3.85729353       1.24386401      -0.69383179
C        3.40780516       2.16269773      -1.64008734
C        2.09880910       2.04272099      -2.11533272
C        1.27051089       1.04206262      -1.61387455
F        0.10143662       0.90641740      -2.14586267
H       -0.48566736      -3.55659647       2.19753039
H        0.85342280      -2.58251464       1.68123876
H       -2.75851056      -3.07228913       1.57691088
H       -4.19188049      -1.06182992       1.16113952
H       -0.84969677       1.14834452      -0.27171900
H        3.39178331      -0.48064007       0.49164372
H        4.84016013       1.33391762      -0.28823960
H        4.04004203       2.95392591      -1.98010223
H        1.70336623       2.75061991      -2.84190010
