29
Properties=species:S:1:pos:R:3 pbc="F F F"
N       -0.14751183      -2.90176930       1.63788301
C       -0.95727926      -2.04664993       0.97334101
C       -2.35525270      -2.14462627       1.16608118
C       -3.12633107      -1.04063320       0.98088103
C       -2.55367173       0.08511885       0.49293259
C       -3.32800085       1.25340401       0.16480985
F       -2.92980646       2.09434105      -0.75404572
F       -4.62695684       0.95278554      -0.25140460
F       -3.58090058       2.05761861       1.27373910
C       -1.17950539       0.20391497       0.17883769
C       -0.38837798      -0.89039157       0.19785958
C        0.97038407      -1.12676049      -0.30741364
O        2.19421335      -1.58694857       1.69581731
C        1.66842023       0.10238031      -0.70319080
C        3.02187280       0.20942290      -0.26280370
C        3.86151055       1.25379369      -0.70255895
C        3.41661092       2.17271897      -1.64850884
C        2.08625978       2.04328447      -2.11265990
C        1.27193492       1.04544966      -1.61262540
F        0.13936144       0.84950444      -2.09973110
H       -0.50660063      -3.59737190       2.20233664
H        0.86742927      -2.63549595       1.69307902
H       -2.77706290      -3.06887356       1.56702043
H       -4.20097060      -1.05630011       1.15538220
H       -0.86534670       1.15508375      -0.25022918
H        3.42109880      -0.45884258       0.46901122
H        4.85856743       1.35446752      -0.29747905
H        4.04438791       2.96636963      -2.00327916
H        1.70152404       2.75500508      -2.84308181
29
Properties=species:S:1:pos:R:3 pbc="F F F"
N       -0.14766788      -2.90221276       1.63738819
C       -0.95831343      -2.04799090       0.97460919
C       -2.35643899      -2.14502694       1.16679096
C       -3.12427222      -1.03801702       0.98074702
C       -2.55478729       0.08282084       0.49489267
C       -3.33084930       1.25521001       0.16550431
F       -2.93012003       2.09416358      -0.75423357
F       -4.63002977       0.95345117      -0.25163667
F       -3.58137950       2.05815368       1.27351630
C       -1.17989251       0.20428285       0.17867851
C       -0.38743081      -0.89292423       0.20136380
C        0.97256895      -1.13135706      -0.31014169
O        2.19765884      -1.58606182       1.69910913
C        1.67306300       0.09618862      -0.70168281
C        3.02522402       0.21135767      -0.26356522
C        3.86241019       1.25479750      -0.70322969
C        3.41348876       2.17155975      -1.64691583
C        2.08932599       2.04602160      -2.11484970
C        1.27132475       1.04529603      -1.61380635
F        0.13077440       0.85659700      -2.10817552
H       -0.50339993      -3.58861474       2.19837447
H        0.86675569      -2.63643496       1.69405479
H       -2.77474064      -3.06836059       1.56785623
H       -4.19776990      -1.05733272       1.15793162
H       -0.86561528       1.15966800      -0.25247378
H        3.42472520      -0.46422569       0.47177933
H        4.85201473       1.35289064      -0.29955139
H        4.04178300       2.96175411      -1.99992367
H        1.70158996       2.75434635      -2.84241063
29
Properties=species:S:1:pos:R:3 pbc="F F F"
N       -0.14789718      -2.90207780       1.63745670
C       -0.95870821      -2.04852525       0.97524475
C       -2.35772201      -2.14595178       1.16814951
C       -3.12419778      -1.03766709       0.98084801
C       -2.55534528       0.08209080       0.49563137
C       -3.33493773       1.25773720       0.16670582
F       -2.93028896       2.09403676      -0.75456796
F       -4.63105013       0.95377479      -0.25188070
F       -3.58164229       2.05803687       1.27273643
C       -1.18014003       0.20388919       0.17896279
C       -0.38674699      -0.89508173       0.20440582
C        0.97351409      -1.13367109      -0.31217598
O        2.19864869      -1.58582312       1.70019419
C        1.67685227       0.09231830      -0.70029863
C        3.02755867       0.21213303      -0.26341846
C        3.86319529       1.25551834      -0.70346900
C        3.41200494       2.17096006      -1.64621309
C        2.09201185       2.04792770      -2.11630943
C        1.27098909       1.04505195      -1.61449399
F        0.12577215       0.86140622      -2.11479625
H       -0.50215063      -3.58409149       2.19674037
H        0.86615110      -2.63602747       1.69446781
H       -2.77380560      -3.06810720       1.56838270
H       -4.19585586      -1.05747530       1.15902898
H       -0.86497697       1.16122103      -0.25409464
H        3.42797922      -0.46731077       0.47337562
H        4.84846926       1.35161128      -0.30013758
H        4.04080724       2.95984377      -1.99829866
H        1.70151178       2.75425280      -2.84217650
29
Properties=species:S:1:pos:R:3 pbc="F F F"
N       -0.14808301      -2.90168860       1.63761611
C       -0.95881420      -2.04877039       0.97562078
C       -2.35877176      -2.14701958       1.16951234
C       -3.12451793      -1.03819441       0.98093745
C       -2.55539338       0.08220126       0.49574354
C       -3.33914869       1.26032454       0.16776367
F       -2.92971254       2.09398686      -0.75505072
F       -4.63134936       0.95390391      -0.25186387
F       -3.58152858       2.05717056       1.27183110
C       -1.18031157       0.20316840       0.17947014
C       -0.38602842      -0.89702294       0.20719519
C        0.97382026      -1.13468668      -0.31336947
O        2.19812654      -1.58569897       1.69969175
C        1.68003789       0.08951854      -0.69909497
C        3.02916480       0.21245362      -0.26314664
C        3.86373308       1.25591814      -0.70350589
C        3.41145726       2.17070718      -1.64582253
C        2.09412637       2.04921276      -2.11729567
C        1.27088379       1.04470516      -1.61502171
F        0.12234940       0.86519608      -2.11991292
H       -0.50160397      -3.58123954       2.19598723
H        0.86553209      -2.63496377       1.69466499
H       -2.77322088      -3.06798649       1.56882427
H       -4.19473620      -1.05742640       1.15975982
H       -0.86433042       1.16144974      -0.25520724
H        3.43040073      -0.46906390       0.47423604
H        4.84627567       1.35054563      -0.30013907
H        4.04034006       2.95878751      -1.99718799
H        1.70130294       2.75451178      -2.84223573
29
Properties=species:S:1:pos:R:3 pbc="F F F"
N       -0.14831099      -2.90088511       1.63777770
C       -0.95876861      -2.04887720       0.97585769
C       -2.35957344      -2.14808896       1.17071689
C       -3.12487310      -1.03909365       0.98102017
C       -2.55535038       0.08258619       0.49571820
C       -3.34297481       1.26258167       0.16855965
F       -2.92849167       2.09383334      -0.75557513
F       -4.63144827       0.95395913      -0.25176013
F       -3.58109393       2.05574136       1.27099470
C       -1.18045024       0.20228612       0.18010042
C       -0.38527594      -0.89877029       0.20974784
C        0.97392809      -1.13515145      -0.31392987
O        2.19680030      -1.58536987       1.69798306
C        1.68279490       0.08728717      -0.69802965
C        3.03033208       0.21258916      -0.26288393
C        3.86409707       1.25610819      -0.70343779
C        3.41142967       2.17061509      -1.64559080
C        2.09575116       2.05007710      -2.11796032
C        1.27094328       1.04431763      -1.61539993
F        0.11979987       0.86835401      -2.12395532
H       -0.50130584      -3.57915868       2.19565394
H        0.86480314      -2.63342694       1.69468428
H       -2.77271770      -3.06794596       1.56925765
H       -4.19409150      -1.05739848       1.16032151
H       -0.86375287       1.16117838      -0.25596193
H        3.43191258      -0.46998412       0.47468496
H        4.84476876       1.34959634      -0.29985828
H        4.04010236       2.95807429      -1.99625499
H        1.70101604       2.75496556      -2.84248058
29
Properties=species:S:1:pos:R:3 pbc="F F F"
N       -0.14862305      -2.89958589       1.63789113
C       -0.95863757      -2.04888798       0.97598157
C       -2.36018243      -2.14907936       1.17173077
C       -3.12520404      -1.04014401       0.98110438
C       -2.55527168       0.08297096       0.49567666
C       -3.34644846       1.26452215       0.16913128
F       -2.92667302       2.09350041      -0.75620718
F       -4.63149827       0.95400496      -0.25165819
F       -3.58040192       2.05383503       1.27023719
C       -1.18057766       0.20138041       0.18076961
C       -0.38453923      -0.90031951       0.21204140
C        0.97399859      -1.13541609      -0.31416929
O        2.19518544      -1.58495456       1.69584615
C        1.68519998       0.08543746      -0.69709096
C        3.03117359       0.21263681      -0.26265546
C        3.86430637       1.25615310      -0.70330771
C        3.41161158       2.17056085      -1.64545830
C        2.09700120       2.05067210      -2.11841707
C        1.27109011       1.04394373      -1.61564075
F        0.11786904       0.87108533      -2.12721288
H       -0.50109230      -3.57747374       2.19553353
H        0.86395520      -2.63157440       1.69454937
H       -2.77222367      -3.06794335       1.56968991
H       -4.19372878      -1.05741854       1.16075019
H       -0.86325817       1.16078638      -0.25646877
H        3.43261990      -0.47039460       0.47495774
H        4.84364144       1.34871268      -0.29942776
H        4.03997965       2.95754221      -1.99539983
H        1.70072815       2.75544746      -2.84277673
29
Properties=species:S:1:pos:R:3 pbc="F F F"
N       -0.14901207      -2.89783843       1.63793081
C       -0.95845666      -2.04882597       0.97599557
C       -2.36065197      -2.14996314       1.17256099
C       -3.12550170      -1.04124618       0.98118673
C       -2.55518436       0.08329173       0.49563426
C       -3.34968056       1.26623199       0.16951304
F       -2.92432481       2.09292996      -0.75698402
F       -4.63155325       0.95408224      -0.25160607
F       -3.57949709       2.05155678       1.26960275
C       -1.18069941       0.20053143       0.18141146
C       -0.38385759      -0.90167819       0.21405587
C        0.97406395      -1.13560593      -0.31427360
O        2.19366394      -1.58457460       1.69382418
C        1.68727499       0.08388715      -0.69628834
C        3.03176807       0.21263300      -0.26247011
C        3.86436419       1.25608025      -0.70313978
C        3.41185731       2.17050880      -1.64539968
C        2.09794603       2.05107277      -2.11873316
C        1.27126340       1.04360836      -1.61576854
F        0.11639629       0.87353528      -2.12981782
H       -0.50089778      -3.57601543       2.19551723
H        0.86302168      -2.62952635       1.69428200
H       -2.77172228      -3.06796083       1.57011058
H       -4.19353744      -1.05748012       1.16106015
H       -0.86285344       1.16040963      -0.25681717
H        3.43267031      -0.47051169       0.47518670
H        4.84275212       1.34787181      -0.29891953
H        4.03991417       2.95712416      -1.99459298
H        1.70047397       2.75587150      -2.84306153
29
Properties=species:S:1:pos:R:3 pbc="F F F"
N       -0.14944415      -2.89575402       1.63788443
C       -0.95824168      -2.04870551       0.97589945
C       -2.36101488      -2.15073757       1.17322284
C       -3.12576186      -1.04234517       0.98125743
C       -2.55509571       0.08355254       0.49557710
C       -3.35275551       1.26777867       0.16973015
F       -2.92160316       2.09211971      -0.75786379
F       -4.63164649       0.95422894      -0.25164167
F       -3.57840047       2.04906577       1.26922593
C       -1.18080787       0.19977838       0.18197777
C       -0.38324381      -0.90286370       0.21578841
C        0.97413190      -1.13576170      -0.31432770
O        2.19243171      -1.58430397       1.69217253
C        1.68903697       0.08258982      -0.69563291
C        3.03218657       0.21259437      -0.26233455
C        3.86429430       1.25591685      -0.70295653
C        3.41209885       2.17044477      -1.64539579
C        2.09864367       2.05132265      -2.11895397
C        1.27142980       1.04332131      -1.61581534
F        0.11520269       0.87580063      -2.13192967
H       -0.50068730      -3.57469995       2.19554245
H        0.86204657      -2.62736071       1.69389901
H       -2.77120933      -3.06799162       1.57050498
H       -4.19344906      -1.05757330       1.16126192
H       -0.86252375       1.16007883      -0.25708231
H        3.43219812      -0.47055722       0.47551750
H        4.84203470       1.34706773      -0.29838255
H        4.03987983       2.95678701      -1.99382765
H        1.70026935       2.75620645      -2.84331748
29
Properties=species:S:1:pos:R:3 pbc="F F F"
N       -0.14988507      -2.89344971       1.63775580
C       -0.95799871      -2.04854223       0.97570406
C       -2.36129249      -2.15141419       1.17374082
C       -3.12598329      -1.04341291       0.98131398
C       -2.55500563       0.08376784       0.49549654
C       -3.35572271       1.26919494       0.16981333
F       -2.91865445       2.09114359      -0.75881865
F       -4.63177661       0.95444610      -0.25175547
F       -3.57716830       2.04651271       1.26921853
C       -1.18089362       0.19913036       0.18244753
C       -0.38269646      -0.90390182       0.21726053
C        0.97420551      -1.13590416      -0.31436539
O        2.19151255      -1.58415719       1.69091366
C        1.69051031       0.08150486      -0.69511877
C        3.03248374       0.21252492      -0.26224452
C        3.86412999       1.25567674      -0.70275800
C        3.41230599       2.17035750      -1.64542167
C        2.09914324       2.05144648      -2.11910260
C        1.27157296       1.04308004      -1.61580410
F        0.11418863       0.87793494      -2.13370482
H       -0.50044033      -3.57348603       2.19558174
H        0.86106516      -2.62512909       1.69342322
H       -2.77068511      -3.06803815       1.57086973
H       -4.19342395      -1.05769448       1.16137373
H       -0.86224356       1.15978152      -0.25731548
H        3.43131774      -0.47061652       0.47596836
H        4.84145020       1.34629424      -0.29784135
H        4.03986412       2.95650812      -1.99309433
H        1.70012018       2.75644159      -2.84353640
29
Properties=species:S:1:pos:R:3 pbc="F F F"
N       -0.15031142      -2.89101414       1.63755408
C       -0.95773169      -2.04834941       0.97542418
C       -2.36150234      -2.15200757       1.17413977
C       -3.12616912      -1.04443499       0.98135712
C       -2.55491471       0.08395164       0.49538973
C       -3.35860630       1.27049193       0.16979299
F       -2.91555784       2.09008409      -0.75986529
F       -4.63190702       0.95467873      -0.25189775
F       -3.57586949       2.04405217       1.26961171
C       -1.18095235       0.19858098       0.18281731
C       -0.38221130      -0.90481798       0.21850343
C        0.97428534      -1.13604402      -0.31439394
O        2.19085370      -1.58411706       1.68997524
C        1.69172353       0.08059576      -0.69472987
C        3.03269411       0.21242456      -0.26219154
C        3.86389557       1.25536475      -0.70253421
C        3.41246530       2.17023988      -1.64545424
C        2.09948179       2.05146028      -2.11919041
C        1.27168350       1.04287855      -1.61575084
F        0.11330952       0.87997243      -2.13524353
H       -0.50014659      -3.57235113       2.19562553
H        0.86010043      -2.62286345       1.69287784
H       -2.77015269      -3.06810438       1.57120792
H       -4.19344238      -1.05784209       1.16141593
H       -0.86198793       1.15949404      -0.25755495
H        3.43011786      -0.47071619       0.47651590
H        4.84096930       1.34554506      -0.29730602
H        4.03985806       2.95627209      -1.99238276
H        1.70002517       2.75657548      -2.84371335
29
Properties=species:S:1:pos:R:3 pbc="F F F"
N       -0.15070636      -2.88850595       1.63729013
C       -0.95744103      -2.04813797       0.97507583
C       -2.36165640      -2.15253184       1.17444243
C       -3.12632121      -1.04540439       0.98139019
C       -2.55482183       0.08411472       0.49525849
C       -3.36141527       1.27167286       0.16969737
F       -2.91236991       2.08900232      -0.76101574
F       -4.63203267       0.95491250      -0.25205311
F       -3.57455921       2.04179688       1.27034379
C       -1.18098134       0.19811588       0.18309511
C       -0.38178175      -0.90563406       0.21954941
C        0.97437410      -1.13618709      -0.31440752
O        2.19039557      -1.58416177       1.68928023
C        1.69270759       0.07982987      -0.69444545
C        3.03283967       0.21229109      -0.26216537
C        3.86360867       1.25498361      -0.70227476
C        3.41257108       2.17008597      -1.64547239
C        2.09968982       2.05137209      -2.11922023
C        1.27175790       1.04270990      -1.61566470
F        0.11253684       0.88193405      -2.13660239
H       -0.49979898      -3.57128170       2.19567347
H        0.85916871      -2.62058261       1.69228450
H       -2.76961301      -3.06819460       1.57152694
H       -4.19349171      -1.05801572       1.16140860
H       -0.86173291       1.15919294      -0.25783059
H        3.42866406      -0.47086995       0.47714131
H        4.84057165       1.34481370      -0.29677764
H        4.03985697       2.95606744      -1.99168222
H        1.69998097       2.75661183      -2.84384570
29
Properties=species:S:1:pos:R:3 pbc="F F F"
N       -0.15105651      -2.88596136       1.63697392
C       -0.95712348      -2.04791689       0.97467351
C       -2.36176115      -2.15299979       1.17466796
C       -3.12643870      -1.04631879       0.98141697
C       -2.55472345       0.08426642       0.49510560
C       -3.36415370       1.27274146       0.16955004
F       -2.90917147       2.08795452      -0.76225906
F       -4.63215936       0.95515589      -0.25221984
F       -3.57328485       2.03981105       1.27129846
C       -1.18097687       0.19771988       0.18329260
C       -0.38139953      -0.90636764       0.22042659
C        0.97447734      -1.13633610      -0.31439499
O        2.19009508      -1.58427352       1.68877292
C        1.69349324       0.07917883      -0.69424490
C        3.03293571       0.21212136      -0.26215654
C        3.86328289       1.25453593      -0.70197250
C        3.41262107       2.16988955      -1.64545895
C        2.09979659       2.05117987      -2.11918786
C        1.27179704       1.04256708      -1.61555104
F        0.11184573       0.88383052      -2.13781485
H       -0.49939091      -3.57026834       2.19572862
H        0.85828268      -2.61829640       1.69166111
H       -2.76906414      -3.06831288       1.57183493
H       -4.19355839      -1.05821535       1.16136903
H       -0.86145601       1.15885864      -0.25816683
H        3.42700598      -0.47108535       0.47783133
H        4.84024441       1.34409386      -0.29625363
H        4.03985985       2.95588459      -1.99098344
H        1.69998091       2.75656301      -2.84393914
29
Properties=species:S:1:pos:R:3 pbc="F F F"
N       -0.15135080      -2.88340090       1.63661299
C       -0.95677323      -2.04769288       0.97422848
C       -2.36181942      -2.15342228       1.17483144
C       -3.12651983      -1.04718005       0.98144017
C       -2.55461487       0.08441562       0.49493300
C       -3.36681855       1.27370170       0.16936917
F       -2.90608872       2.08700254      -0.76355672
F       -4.63227755       0.95539441      -0.25238531
F       -3.57209129       2.03812568       1.27234518
C       -1.18093404       0.19738096       0.18342052
C       -0.38105572      -0.90703151       0.22115685
C        0.97460254      -1.13649077      -0.31434428
O        2.18992319      -1.58443687       1.68841163
C        1.69410965       0.07861918      -0.69411053
C        3.03299489       0.21191351      -0.26215808
C        3.86292932       1.25402574      -0.70162507
C        3.41261563       2.16964586      -1.64540241
C        2.09982950       2.05088196      -2.11909067
C        1.27180471       1.04244459      -1.61541516
F        0.11121319       0.88566694      -2.13890423
H       -0.49891605      -3.56930349       2.19579412
H        0.85745282      -2.61600844       1.69102071
H       -2.76850257      -3.06846208       1.57213851
H       -4.19362822      -1.05844015       1.16131059
H       -0.86113724       1.15847726      -0.25858370
H        3.42518363      -0.47136568       0.47857565
H        4.83998031       1.34338102      -0.29573174
H        4.03986838       2.95571626      -1.99028073
H        1.70002034       2.75644187      -2.84400040
29
Properties=species:S:1:pos:R:3 pbc="F F F"
N       -0.15157948      -2.88083428       1.63621187
C       -0.95638256      -2.04747053       0.97374852
C       -2.36183114      -2.15380787       1.17494401
C       -3.12656176      -1.04799310       0.98146098
C       -2.55449033       0.08457069       0.49474127
C       -3.36939775       1.27455596       0.16916837
F       -2.90328826       2.08620173      -0.76483564
F       -4.63236845       0.95559863      -0.25253482
F       -3.57101614       2.03674458       1.27336572
C       -1.18084642       0.19709065       0.18348744
C       -0.38074096      -0.90763439       0.22175639
C        0.97475782      -1.13664862      -0.31424564
O        2.18985893      -1.58463685       1.68815935
C        1.69458385       0.07813158      -0.69402788
C        3.03302918       0.21166756      -0.26216551
C        3.86255717       1.25345815      -0.70123420
C        3.41255843       2.16935261      -1.64529619
C        2.09981074       2.05048759      -2.11893458
C        1.27178682       1.04233831      -1.61526343
F        0.11061878       0.88744554      -2.13988936
H       -0.49836844      -3.56838008       2.19587151
H        0.85668822      -2.61371820       1.69037131
H       -2.76792317      -3.06864326       1.57244177
H       -4.19368691      -1.05868838       1.16124298
H       -0.86075911       1.15804002      -0.25909606
H        3.42323032      -0.47171124       0.47936512
H        4.83977528       1.34267197      -0.29521106
H        4.03988543       2.95555653      -1.98957172
H        1.70009993       2.75625471      -2.84403053
29
Properties=species:S:1:pos:R:3 pbc="F F F"
N       -0.15173431      -2.87826407       1.63577273
C       -0.95594428      -2.04725317       0.97323973
C       -2.36179517      -2.15416256       1.17501368
C       -3.12656163      -1.04876364       0.98147965
C       -2.55434430       0.08474022       0.49452977
C       -3.37187853       1.27530757       0.16895753
F       -2.90092758       2.08557283      -0.76599746
F       -4.63241137       0.95573517      -0.25265734
F       -3.57009694       2.03566157       1.27425730
C       -1.18070745       0.19684339       0.18350044
C       -0.38044641      -0.90818156       0.22223743
C        0.97494993      -1.13680605      -0.31409409
O        2.18988595      -1.58485975       1.68798286
C        1.69494031       0.07770047      -0.69398510
C        3.03304985       0.21138556      -0.26217613
C        3.86217432       1.25283936      -0.70080415
C        3.41245554       2.16901056      -1.64513775
C        2.09975883       2.05001129      -2.11872966
C        1.27175009       1.04224562      -1.61510301
F        0.11004458       0.88916799      -2.14078631
H       -0.49774334      -3.56749091       2.19596086
H        0.85599662      -2.61142237       1.68971692
H       -2.76732050      -3.06885563       1.57274699
H       -4.19372187      -1.05895722       1.16117321
H       -0.86030764       1.15754277      -0.25971218
H        3.42117324      -0.47212015       0.48019163
H        4.83962655       1.34196439      -0.29469103
H        4.03991408       2.95540135      -1.98885656
H        1.70022144       2.75600696      -2.84402996
29
Properties=species:S:1:pos:R:3 pbc="F F F"
N       -0.15181025      -2.87568816       1.63529657
C       -0.95545433      -2.04704244       0.97270768
C       -2.36171205      -2.15448958       1.17504672
C       -3.12651880      -1.04949591       0.98149640
C       -2.55417382       0.08493320       0.49429770
C       -3.37424931       1.27596088       0.16874432
F       -2.89909540       2.08509133      -0.76695032
F       -4.63239209       0.95577057      -0.25274810
F       -3.56937306       2.03486511       1.27493430
C       -1.18051312       0.19663680       0.18346565
C       -0.38016566      -0.90867525       0.22261021
C        0.97518163      -1.13695856      -0.31388940
O        2.18998939      -1.58509485       1.68785651
C        1.69519950       0.07731442      -0.69397204
C        3.03306568       0.21107178      -0.26218806
C        3.86178692       1.25217709      -0.70033981
C        3.41231267       2.16862370      -1.64492745
C        2.09968840       2.04946975      -2.11848671
C        1.27170019       1.04216586      -1.61494099
F        0.10947447       0.89083734      -2.14160681
H       -0.49703906      -3.56662776       2.19606166
H        0.85538333      -2.60911577       1.68905918
H       -2.76669100      -3.06909627       1.57305572
H       -4.19372447      -1.05924218       1.16110697
H       -0.85977418       1.15698580      -0.26043280
H        3.41903283      -0.47258861       0.48104873
H        4.83953049       1.34125667      -0.29416945
H        4.03995608       2.95524954      -1.98813692
H        1.70038502       2.75570551      -2.84399944
29
Properties=species:S:1:pos:R:3 pbc="F F F"
N       -0.15180537      -2.87310148       1.63478342
C       -0.95491185      -2.04683843       0.97215778
C       -2.36158405      -2.15479004       1.17504841
C       -3.12643426      -1.05019184       0.98151146
C       -2.55397805       0.08515853       0.49404459
C       -3.37650164       1.27652153       0.16853500
F       -2.89780832       2.08470932      -0.76762959
F       -4.63231509       0.95566715      -0.25281417
F       -3.56887560       2.03433277       1.27533732
C       -1.18026203       0.19647138       0.18338794
C       -0.37989462      -0.90911548       0.22288391
C        0.97545127      -1.13710131      -0.31363555
O        2.19015797      -1.58533311       1.68776572
C        1.69537773       0.07696541      -0.69397962
C        3.03308204       0.21073177      -0.26219962
C        3.86139896       1.25147968      -0.69984542
C        3.41213332       2.16819762      -1.64466725
C        2.09961017       2.04887973      -2.11821559
C        1.27164126       1.04209947      -1.61478328
F        0.10889544       0.89245804      -2.14235543
H       -0.49625664      -3.56578071       2.19617274
H        0.85485126      -2.60679214       1.68839787
H       -2.76603253      -3.06935996       1.57336907
H       -4.19368912      -1.05953724       1.16104882
H       -0.85915480       1.15637232      -0.26125189
H        3.41682299      -0.47311165       0.48193163
H        4.83948230       1.34054922      -0.29364436
H        4.04001068       2.95510151      -1.98741453
H        1.70058860       2.75535796      -2.84393937
29
Properties=species:S:1:pos:R:3 pbc="F F F"
N       -0.15172076      -2.87049903       1.63423262
C       -0.95431921      -2.04664115       0.97159513
C       -2.36141563      -2.15506491       1.17502347
C       -3.12631085      -1.05085187       0.98152497
C       -2.55375864       0.08542386       0.49377012
C       -3.37863094       1.27699541       0.16833451
F       -2.89703651       2.08437920      -0.76800347
F       -4.63218442       0.95539227      -0.25286414
F       -3.56862223       2.03403301       1.27543902
C       -1.17995546       0.19634921       0.18327065
C       -0.37963152      -0.90950172       0.22306683
C        0.97575297      -1.13723060      -0.31334074
O        2.19038098      -1.58556690       1.68770104
C        1.69548760       0.07664713      -0.69400016
C        3.03310123       0.21037091      -0.26220954
C        3.86101312       1.25075500      -0.69932455
C        3.41191867       2.16773820      -1.64436053
C        2.09953142       2.04825682      -2.11792549
C        1.27157588       1.04204692      -1.61463472
F        0.10829892       0.89403470      -2.14302895
H       -0.49539971      -3.56493984       2.19629237
H        0.85440104      -2.60444622       1.68773133
H       -2.76534478      -3.06964102       1.57368776
H       -4.19361364      -1.05983617       1.16100205
H       -0.85844992       1.15570690      -0.26215855
H        3.41455255      -0.47368451       0.48283645
H        4.83947677       1.33984440      -0.29311577
H        4.04007504       2.95495820      -1.98669116
H        1.70082803       2.75497179      -2.84385053
29
Properties=species:S:1:pos:R:3 pbc="F F F"
N       -0.15156041      -2.86787751       1.63364226
C       -0.95368109      -2.04645011       0.97102233
C       -2.36121349      -2.15531563       1.17497510
C       -3.12615333      -1.05147541       0.98153588
C       -2.55351978       0.08573515       0.49347326
C       -3.38063439       1.27738766       0.16814525
F       -2.89672196       2.08406031      -0.76807310
F       -4.63199629       0.95492340      -0.25290412
F       -3.56860766       2.03393373       1.27527273
C       -1.17959738       0.19627289       0.18311491
C       -0.37937699      -0.90983376       0.22316551
C        0.97607683      -1.13734487      -0.31301864
O        2.19064688      -1.58578974       1.68765434
C        1.69553818       0.07635404      -0.69402830
C        3.03312278       0.20999378      -0.26221790
C        3.86063056       1.25000989      -0.69878122
C        3.41166756       2.16725078      -1.64401256
C        2.09945619       2.04761473      -2.11762586
C        1.27150486       1.04200813      -1.61450011
F        0.10767954       0.89557099      -2.14362149
H       -0.49447440      -3.56409637       2.19641766
H        0.85403102      -2.60207506       1.68705608
H       -2.76462963      -3.06993438       1.57401138
H       -4.19349931      -1.06013306       1.16096769
H       -0.85766381       1.15499465      -0.26314001
H        3.41222642      -0.47430324       0.48375892
H        4.83950758       1.33914479      -0.29258552
H        4.04014438       2.95482046      -1.98596933
H        1.70109716       2.75455380      -2.84373510
29
Properties=species:S:1:pos:R:3 pbc="F F F"
N       -0.15133212      -2.86523436       1.63301023
C       -0.95300509      -2.04626291       0.97044020
C       -2.36098716      -2.15554279       1.17490579
C       -3.12596919      -1.05206010       0.98154277
C       -2.55326872       0.08609804       0.49315306
C       -3.38251135       1.27770392       0.16796738
F       -2.89674344       2.08369468      -0.76788540
F       -4.63174802       0.95424770      -0.25293963
F       -3.56879847       2.03400338       1.27493413
C       -1.17919519       0.19624625       0.18292091
C       -0.37913496      -0.91011069       0.22318567
C        0.97640820      -1.13744462      -0.31268876
O        2.19094066      -1.58599516       1.68761784
C        1.69553401       0.07608214      -0.69406001
C        3.03314226       0.20960520      -0.26222518
C        3.86024836       1.24925114      -0.69821939
C        3.41137497       2.16674064      -1.64362886
C        2.09938409       2.04696599      -2.11732507
C        1.27142588       1.04198342      -1.61438296
F        0.10703056       0.89706996      -2.14413161
H       -0.49349028      -3.56324147       2.19654531
H        0.85373613      -2.59967686       1.68636811
H       -2.76389208      -3.07023428       1.57433902
H       -4.19335128      -1.06042122       1.16094521
H       -0.85680530       1.15424197      -0.26418208
H        3.40984506      -0.47496381       0.48469526
H        4.83956534       1.33845352      -0.29205571
H        4.04021043       2.95468962      -1.98525089
H        1.70138669       2.75411068      -2.84359535
29
Properties=species:S:1:pos:R:3 pbc="F F F"
N       -0.15104429      -2.86256862       1.63233805
C       -0.95229941      -2.04607674       0.96985209
C       -2.36074619      -2.15574695       1.17482085
C       -3.12576615      -1.05260328       0.98154731
C       -2.55301279       0.08651738       0.49281200
C       -3.38426289       1.27795099       0.16780291
F       -2.89697091       2.08324686      -0.76750824
F       -4.63143815       0.95336322      -0.25297249
F       -3.56915416       2.03419100       1.27446853
C       -1.17875673       0.19627369       0.18269134
C       -0.37890970      -0.91033170       0.22313578
C        0.97673123      -1.13753583      -0.31237758
O        2.19124669      -1.58617780       1.68758702
C        1.69547845       0.07582820      -0.69408921
C        3.03315473       0.20920960      -0.26222886
C        3.85986317       1.24848506      -0.69763952
C        3.41103518       2.16621246      -1.64321173
C        2.09931334       2.04632112      -2.11702687
C        1.27133641       1.04197294      -1.61428214
F        0.10634544       0.89853357      -2.14455982
H       -0.49245724      -3.56236723       2.19667535
H        0.85351095      -2.59725181       1.68566686
H       -2.76313772      -3.07053525       1.57467293
H       -4.19317587      -1.06069388       1.16093604
H       -0.85588506       1.15345602      -0.26526654
H        3.40740795      -0.47566272       0.48564545
H        4.83964124       1.33777370      -0.29152507
H        4.04026508       2.95456729      -1.98453394
H        1.70168738       2.75364870      -2.84343051
29
Properties=species:S:1:pos:R:3 pbc="F F F"
N       -0.15070420      -2.85988279       1.63162825
C       -0.95157135      -2.04589082       0.96926164
C       -2.36049837      -2.15593057       1.17472566
C       -3.12555063      -1.05310486       0.98155162
C       -2.55275769       0.08699521       0.49245332
C       -3.38589118       1.27813430       0.16765338
F       -2.89731068       2.08273531      -0.76701895
F       -4.63106616       0.95227836      -0.25300337
F       -3.56962676       2.03444569       1.27391362
C       -1.17828883       0.19635726       0.18242934
C       -0.37870413      -0.91049833       0.22302458
C        0.97703515      -1.13762553      -0.31210384
O        2.19155060      -1.58633547       1.68755793
C        1.69537529       0.07558737      -0.69411036
C        3.03315607       0.20880886      -0.26222617
C        3.85947206       1.24771531      -0.69704151
C        3.41064336       2.16566816      -1.64276265
C        2.09924216       2.04568630      -2.11673287
C        1.27123494       1.04197469      -1.61419491
F        0.10562001       0.89996058      -2.14491189
H       -0.49138385      -3.56146878       2.19680835
H        0.85335125      -2.59480381       1.68495274
H       -2.76237113      -3.07083432       1.57501571
H       -4.19297889      -1.06094646       1.16094102
H       -0.85491403       1.15264254      -0.26637453
H        3.40491561      -0.47639884       0.48661028
H        4.83972819       1.33710610      -0.29099157
H        4.04030164       2.95445300      -1.98381541
H        1.70199152       2.75317155      -2.84323941
29
Properties=species:S:1:pos:R:3 pbc="F F F"
N       -0.15031856      -2.85718200       1.63088369
C       -0.95082769      -2.04570612       0.96867211
C       -2.36025033      -2.15609714       1.17462474
C       -3.12532812      -1.05356601       0.98155737
C       -2.55250828       0.08753157       0.49208027
C       -3.38740038       1.27825805       0.16751942
F       -2.89768487       2.08220160      -0.76650043
F       -4.63063353       0.95100994      -0.25303238
F       -3.57016963       2.03472577       1.27330458
C       -1.17779796       0.19649667       0.18213830
C       -0.37852027      -0.91061389       0.22286059
C        0.97731468      -1.13771623      -0.31186964
O        2.19183964      -1.58646847       1.68752687
C        1.69522854       0.07535421      -0.69411926
C        3.03314259       0.20840308      -0.26221492
C        3.85907162       1.24694362      -0.69642565
C        3.41019537       2.16510773      -1.64228282
C        2.09916844       2.04506442      -2.11644355
C        1.27112017       1.04198547      -1.61411831
F        0.10485285       0.90134783      -2.14519723
H       -0.49027789      -3.56054388       2.19694493
H        0.85325339      -2.59233941       1.68422663
H       -2.76159671      -3.07113050       1.57536960
H       -4.19276634      -1.06117602       1.16095989
H       -0.85390344       1.15180640      -0.26748849
H        3.40236966      -0.47717254       0.48759037
H        4.83982032       1.33644985      -0.29045331
H        4.04031428       2.95434482      -1.98309197
H        1.70229247       2.75268118      -2.84302141
29
Properties=species:S:1:pos:R:3 pbc="F F F"
N       -0.14989342      -2.85447256       1.63010730
C       -0.95007451      -2.04552438       0.96808627
C       -2.36000725      -2.15625022       1.17452164
C       -3.12510291      -1.05398787       0.98156549
C       -2.55226832       0.08812550       0.49169599
C       -3.38879628       1.27832574       0.16740079
F       -2.89803070       2.08168980      -0.76602523
F       -4.63014305       0.94957935      -0.25305865
F       -3.57074347       2.03500111       1.27267087
C       -1.17729003       0.19669004       0.18182175
C       -0.37835895      -0.91068281       0.22265219
C        0.97756752      -1.13780948      -0.31167210
O        2.19210356      -1.58657850       1.68749059
C        1.69504290       0.07512398      -0.69411320
C        3.03311124       0.20799153      -0.26219360
C        3.85865791       1.24617082      -0.69579301
C        3.40968810       2.16453037      -1.64177331
C        2.09909012       2.04445639      -2.11615871
C        1.27099107       1.04200205      -1.61404967
F        0.10404545       0.90269176      -2.14542592
H       -0.48914596      -3.55959187       2.19708562
H        0.85321444      -2.58986635       1.68348972
H       -2.76081842      -3.07142392       1.57573630
H       -4.19254411      -1.06138052       1.16099148
H       -0.85286425       1.15095220      -0.26859302
H        3.39977329      -0.47798460       0.48858598
H        4.83991303       1.33580340      -0.28990867
H        4.04029821       2.95424023      -1.98236030
H        1.70258482       2.75217880      -2.84277658
29
Properties=species:S:1:pos:R:3 pbc="F F F"
N       -0.14943430      -2.85176128       1.62930199
C       -0.94931738      -2.04534755       0.96750620
C       -2.35977328      -2.15639302       1.17441884
C       -3.12487851      -1.05437120       0.98157602
C       -2.55204067       0.08877554       0.49130327
C       -3.39008584       1.27834044       0.16729635
F       -2.89829399       2.08123480      -0.76564874
F       -4.62959994       0.94801242      -0.25308038
F       -3.57131788       2.03525187       1.27203637
C       -1.17677047       0.19693459       0.18148306
C       -0.37821999      -0.91071046       0.22240757
C        0.97779346      -1.13790713      -0.31150738
O        2.19233515      -1.58666819       1.68744666
C        1.69482365       0.07489326      -0.69409116
C        3.03305968       0.20757332      -0.26216157
C        3.85822640       1.24539750      -0.69514568
C        3.40911955       2.16393511      -1.64123515
C        2.09900528       2.04386216      -2.11587806
C        1.27084673       1.04202174      -1.61398691
F        0.10320122       0.90398932      -2.14560759
H       -0.48799369      -3.55861316       2.19723074
H        0.85323191      -2.58739279       1.68274335
H       -2.76004006      -3.07171528       1.57611676
H       -4.19231811      -1.06155853       1.16103387
H       -0.85180707       1.15008474      -0.26967529
H        3.39713154      -0.47883572       0.48959690
H        4.84000283       1.33516512      -0.28935665
H        4.04024952       2.95413682      -1.98161749
H        1.70286426       2.75166557      -2.84250589
29
Properties=species:S:1:pos:R:3 pbc="F F F"
N       -0.14894643      -2.84905470       1.62847026
C       -0.94856171      -2.04517732       0.96693318
C       -2.35955162      -2.15652811       1.17431768
C       -3.12465788      -1.05471603       0.98158795
C       -2.55182742       0.08948002       0.49090438
C       -3.39127581       1.27830468       0.16720395
F       -2.89842021       2.08085636      -0.76540893
F       -4.62901428       0.94634189      -0.25309527
F       -3.57186923       2.03546571       1.27142194
C       -1.17624450       0.19722692       0.18112525
C       -0.37810253      -0.91070300       0.22213465
C        0.97799364      -1.13801121      -0.31137146
O        2.19253001      -1.58674059       1.68739348
C        1.69457596       0.07465983      -0.69405366
C        3.03298568       0.20714767      -0.26211902
C        3.85777118       1.24462414      -0.69448681
C        3.40848812       2.16332088      -1.64066933
C        2.09891176       2.04328092      -2.11560126
C        1.27068604       1.04204244      -1.61392850
F        0.10232476       0.90523805      -2.14575093
H       -0.48682606      -3.55760856       2.19738012
H        0.85330329      -2.58492645       1.68198860
H       -2.75926534      -3.07200520       1.57651096
H       -4.19209398      -1.06170906       1.16108453
H       -0.85074214       1.14920891      -0.27072514
H        3.39445064      -0.47972629       0.49062242
H        4.84008654       1.33453347      -0.28879695
H        4.04016444       2.95403213      -1.98086104
H        1.70312708       2.75114251      -2.84221103
29
Properties=species:S:1:pos:R:3 pbc="F F F"
N       -0.14844370      -2.84640309       1.62762876
C       -0.94782518      -2.04501734       0.96637689
C       -2.35934809      -2.15665517       1.17421997
C       -3.12444713      -1.05501705       0.98159903
C       -2.55163315       0.09022410       0.49050758
C       -3.39235430       1.27822269       0.16712181
F       -2.89835435       2.08055364      -0.76532220
F       -4.62841513       0.94463993      -0.25310155
F       -3.57237139       2.03563385       1.27085575
C       -1.17572614       0.19755703       0.18075726
C       -0.37800673      -0.91066785       0.22184579
C        0.97816746      -1.13812157      -0.31126192
O        2.19268453      -1.58679789       1.68733155
C        1.69430951       0.07442671      -0.69400388
C        3.03288916       0.20672153      -0.26206813
C        3.85729353       1.24386401      -0.69383179
C        3.40780516       2.16269773      -1.64008734
C        2.09880910       2.04272099      -2.11533272
C        1.27051089       1.04206262      -1.61387455
F        0.10143662       0.90641740      -2.14586267
H       -0.48566736      -3.55659647       2.19753039
H        0.85342280      -2.58251464       1.68123876
H       -2.75851056      -3.07228913       1.57691088
H       -4.19188049      -1.06182992       1.16113952
H       -0.84969677       1.14834452      -0.27171900
H        3.39178331      -0.48064007       0.49164372
H        4.84016013       1.33391762      -0.28823960
H        4.04004203       2.95392591      -1.98010223
H        1.70336623       2.75061991      -2.84190010
29
Properties=species:S:1:pos:R:3 pbc="F F F"
N       -0.14791359      -2.84372064       1.62674996
C       -0.94708840      -2.04486233       0.96581814
C       -2.35915860      -2.15677895       1.17412156
C       -3.12424226      -1.05528177       0.98160668
C       -2.55145313       0.09103363       0.49009979
C       -3.39335780       1.27809331       0.16704352
F       -2.89802203       2.08027384      -0.76538044
F       -4.62780969       0.94289623      -0.25309922
F       -3.57282751       2.03575930       1.27033615
C       -1.17520346       0.19793348       0.18036829
C       -0.37792870      -0.91060886       0.22153678
C        0.97832245      -1.13824283      -0.31117213
O        2.19280422      -1.58684386       1.68725867
C        1.69401925       0.07418659      -0.69394356
C        3.03276452       0.20628107      -0.26200915
C        3.85676837       1.24309209      -0.69316320
C        3.40704569       2.16204462      -1.63947078
C        2.09869126       2.04216351      -2.11506409
C        1.27031347       1.04208332      -1.61382364
F        0.10051058       0.90756806      -2.14595448
H       -0.48448244      -3.55554271       2.19768550
H        0.85359206      -2.58008083       1.68046811
H       -2.75775425      -3.07257617       1.57732845
H       -4.19167587      -1.06192392       1.16119773
H       -0.84864456       1.14746818      -0.27268522
H        3.38904625      -0.48160734       0.49269369
H        4.84022356       1.33329683      -0.28766695
H        4.03987411       2.95381371      -1.97931431
H        1.70358653       2.75008243      -2.84156582
29
Properties=species:S:1:pos:R:3 pbc="F F F"
N       -0.14736879      -2.84105475       1.62584927
C       -0.94636855      -2.04471476       0.96526572
C       -2.35898811      -2.15689747       1.17402284
C       -3.12404899      -1.05550315       0.98160761
C       -2.55129116       0.09189545       0.48968785
C       -3.39426437       1.27791990       0.16696697
F       -2.89736787       2.07998463      -0.76557062
F       -4.62723853       0.94118201      -0.25308990
F       -3.57321945       2.03583854       1.26988571
C       -1.17469053       0.19834626       0.17996685
C       -0.37786884      -0.91053197       0.22121774
C        0.97845773      -1.13837356      -0.31110074
O        2.19288955      -1.58687936       1.68717693
C        1.69371393       0.07394437      -0.69387762
C        3.03261170       0.20583417      -0.26194521
C        3.85619456       1.24232015      -0.69249633
C        3.40622091       2.16137216      -1.63883092
C        2.09855779       2.04161728      -2.11480025
C        1.27009535       1.04210466      -1.61377709
F        0.09956574       0.90867366      -2.14603301
H       -0.48329440      -3.55446514       2.19784161
H        0.85380587      -2.57766986       1.67968885
H       -2.75701223      -3.07286081       1.57775480
H       -4.19148752      -1.06198906       1.16125571
H       -0.84761059       1.14659968      -0.27360390
H        3.38629263      -0.48261107       0.49375297
H        4.84027327       1.33268131      -0.28708982
H        4.03965947       2.95369590      -1.97850925
H        1.70378144       2.74954085      -2.84121677
29
Properties=species:S:1:pos:R:3 pbc="F F F"
N       -0.14681244      -2.83840756       1.62492822
C       -0.94566932      -2.04457508       0.96471948
C       -2.35883728      -2.15701149       1.17392279
C       -3.12386881      -1.05568026       0.98159941
C       -2.55114703       0.09280799       0.48927210
C       -3.39506804       1.27770485       0.16688962
F       -2.89635977       2.07967220      -0.76587926
F       -4.62672890       0.93953040      -0.25307630
F       -3.57354269       2.03587149       1.26951171
C       -1.17419220       0.19878948       0.17955608
C       -0.37782560      -0.91044272       0.22089339
C        0.97857541      -1.13851447      -0.31104469
O        2.19294590      -1.58690679       1.68708894
C        1.69339822       0.07370065      -0.69381000
C        3.03243022       0.20538088      -0.26187825
C        3.85556396       1.24154437      -0.69183342
C        3.40533191       2.16068004      -1.63816872
C        2.09840753       2.04108108      -2.11454122
C        1.26985588       1.04212679      -1.61373528
F        0.09860689       0.90973974      -2.14611006
H       -0.48210581      -3.55336590       2.19799825
H        0.85406172      -2.57528551       1.67890087
H       -2.75628688      -3.07314342       1.57818848
H       -4.19131816      -1.06202692       1.16131223
H       -0.84660020       1.14574291      -0.27447311
H        3.38353142      -0.48365012       0.49481992
H        4.84030833       1.33207026      -0.28650912
H        4.03939614       2.95357057      -1.97768604
H        1.70394960       2.74899654      -2.84085599
29
Properties=species:S:1:pos:R:3 pbc="F F F"
N       -0.14624708      -2.83578128       1.62398908
C       -0.94499328      -2.04444398       0.96418000
C       -2.35870586      -2.15712182       1.17382090
C       -3.12370214      -1.05581280       0.98158061
C       -2.55101962       0.09376874       0.48885334
C       -3.39576394       1.27745194       0.16681035
F       -2.89499168       2.07933685      -0.76629063
F       -4.62629731       0.93796335      -0.25306047
F       -3.57379838       2.03585896       1.26921484
C       -1.17371277       0.19925607       0.17914027
C       -0.37779729      -0.91034615       0.22056807
C        0.97867724      -1.13866597      -0.31100089
O        2.19297975      -1.58692875       1.68699873
C        1.69307687       0.07345594      -0.69374391
C        3.03222047       0.20492113      -0.26180952
C        3.85487151       1.24075858      -0.69117368
C        3.40438081       2.15996792      -1.63748450
C        2.09824009       2.04055342      -2.11428639
C        1.26959488       1.04214973      -1.61369818
F        0.09764066       0.91077627      -2.14621250
H       -0.48091864      -3.55224798       2.19815574
H        0.85435761      -2.57293087       1.67810458
H       -2.75557992      -3.07342484       1.57862872
H       -4.19116913      -1.06204009       1.16136745
H       -0.84561671       1.14490061      -0.27529153
H        3.38077198      -0.48472315       0.49589331
H        4.84032855       1.33146257      -0.28592505
H        4.03908296       2.95343531      -1.97684319
H        1.70409035       2.74845030      -2.84048556
29
Properties=species:S:1:pos:R:3 pbc="F F F"
N       -0.14567302      -2.83317943       1.62303918
C       -0.94434008      -2.04432300       0.96365271
C       -2.35859096      -2.15723004       1.17372146
C       -3.12354622      -1.05590189       0.98155496
C       -2.55090500       0.09477430       0.48843664
C       -3.39634804       1.27716609       0.16673361
F       -2.89328743       2.07899535      -0.76678597
F       -4.62594691       0.93649031      -0.25303894
F       -3.57399254       2.03580363       1.26899402
C       -1.17325428       0.19973720       0.17872901
C       -0.37778033      -0.91024738       0.22024981
C        0.97876654      -1.13882898      -0.31096220
O        2.19299979      -1.58694892       1.68691585
C        1.69275648       0.07320992      -0.69367761
C        3.03198567       0.20445417      -0.26173540
C        3.85411808       1.23995440      -0.69050930
C        3.40337288       2.15923471      -1.63677367
C        2.09805761       2.04003198      -2.11403035
C        1.26931478       1.04217262      -1.61366109
F        0.09663159       0.91181127      -2.14649679
H       -0.47973283      -3.55111605       2.19831937
H        0.85469383      -2.57060910       1.67730510
H       -2.75489080      -3.07370708       1.57907960
H       -4.19103878      -1.06203278       1.16142701
H       -0.84465967       1.14407403      -0.27605396
H        3.37802622      -0.48582955       0.49697677
H        4.84033627       1.33085603      -0.28533281
H        4.03872166       2.95328660      -1.97597469
H        1.70420550       2.74790158      -2.84010229
29
Properties=species:S:1:pos:R:3 pbc="F F F"
N       -0.14507687      -2.83060235       1.62207868
C       -0.94369486      -2.04421019       0.96313587
C       -2.35847537      -2.15733426       1.17362158
C       -3.12338271      -1.05594557       0.98151929
C       -2.55078443       0.09582502       0.48801915
C       -3.39680674       1.27685756       0.16665766
F       -2.89129912       2.07868849      -0.76735515
F       -4.62565671       0.93511244      -0.25301494
F       -3.57412424       2.03571534       1.26883499
C       -1.17280479       0.20022700       0.17832485
C       -0.37775756      -0.91014736       0.21993831
C        0.97886019      -1.13900121      -0.31092964
O        2.19302770      -1.58696761       1.68684282
C        1.69245614       0.07296533      -0.69361563
C        3.03174295       0.20398277      -0.26165943
C        3.85332261       1.23912698      -0.68983795
C        3.40232758       2.15848229      -1.63603803
C        2.09787621       2.03951771      -2.11377455
C        1.26903228       1.04219783      -1.61362639
F        0.09519018       0.91276651      -2.14691485
H       -0.47853455      -3.54997196       2.19848715
H        0.85508382      -2.56831941       1.67650014
H       -2.75420445      -3.07398912       1.57953829
H       -4.19091089      -1.06200627       1.16148939
H       -0.84371327       1.14326714      -0.27676297
H        3.37532027      -0.48696491       0.49806656
H        4.84034764       1.33025158      -0.28473446
H        4.03832820       2.95312374      -1.97508137
H        1.70431079       2.74735250      -2.83970936
29
Properties=species:S:1:pos:R:3 pbc="F F F"
N       -0.14447101      -2.82805343       1.62110240
C       -0.94306838      -2.04410713       0.96262259
C       -2.35836779      -2.15743600       1.17351300
C       -3.12321757      -1.05594582       0.98146540
C       -2.55066505       0.09691635       0.48759271
C       -3.39715733       1.27653519       0.16657622
F       -2.88914063       2.07843417      -0.76796562
F       -4.62542216       0.93381563      -0.25299820
F       -3.57422427       2.03560420       1.26871150
C       -1.17237588       0.20071834       0.17792378
C       -0.37773796      -0.91004971       0.21962719
C        0.97894903      -1.13918348      -0.31091021
O        2.19305879      -1.58698839       1.68677659
C        1.69216909       0.07272154      -0.69356749
C        3.03148444       0.20350567      -0.26158983
C        3.85248850       1.23827556      -0.68916390
C        3.40123853       2.15771039      -1.63528646
C        2.09768676       2.03900862      -2.11352650
C        1.26873697       1.04222367      -1.61360175
F        0.09367546       0.91367397      -2.14728010
H       -0.47733598      -3.54882112       2.19865166
H        0.85551536      -2.56606272       1.67568184
H       -2.75353085      -3.07427342       1.57999727
H       -4.19079451      -1.06196564       1.16154776
H       -0.84278640       1.14247774      -0.27742851
H        3.37264940      -0.48812661       0.49915203
H        4.84035374       1.32964714      -0.28413765
H        4.03789329       2.95294319      -1.97417030
H        1.70439639       2.74680211      -2.83931541
29
Properties=species:S:1:pos:R:3 pbc="F F F"
N       -0.14385693      -2.82553498       1.62011302
C       -0.94246005      -2.04401409       0.96211384
C       -2.35826565      -2.15753558       1.17339540
C       -3.12304482      -1.05590404       0.98139302
C       -2.55054219       0.09804589       0.48715601
C       -3.39741000       1.27620972       0.16649127
F       -2.88690768       2.07822583      -0.76857029
F       -4.62523057       0.93258567      -0.25299083
F       -3.57431492       2.03548392       1.26860060
C       -1.17196676       0.20120669       0.17752855
C       -0.37771962      -0.90995621       0.21931711
C        0.97903491      -1.13937553      -0.31090361
O        2.19309873      -1.58701300       1.68672102
C        1.69189884       0.07247877      -0.69353430
C        3.03121352       0.20302245      -0.26152679
C        3.85162981       1.23740367      -0.68848626
C        3.40011061       2.15692005      -1.63452036
C        2.09749144       2.03850388      -2.11328593
C        1.26842973       1.04224920      -1.61358676
F        0.09213691       0.91455130      -2.14761987
H       -0.47613868      -3.54766800       2.19881301
H        0.85598703      -2.56383795       1.67485008
H       -2.75286861      -3.07456114       1.58045681
H       -4.19068662      -1.06191486       1.16160282
H       -0.84187614       1.14170412      -0.27805353
H        3.37001822      -0.48931064       0.50023040
H        4.84035684       1.32904185      -0.28354225
H        4.03741914       2.95274267      -1.97324118
H        1.70446352       2.74625037      -2.83892101
29
Properties=species:S:1:pos:R:3 pbc="F F F"
N       -0.14323570      -2.82304905       1.61911324
C       -0.94186852      -2.04393089       0.96161058
C       -2.35816573      -2.15763290       1.17326854
C       -3.12285865      -1.05582179       0.98130185
C       -2.55040961       0.09921344       0.48670657
C       -3.39757727       1.27589196       0.16640476
F       -2.88467104       2.07804994      -0.76913459
F       -4.62507173       0.93141094      -0.25299466
F       -3.57441510       2.03536762       1.26847951
C       -1.17157522       0.20168899       0.17714101
C       -0.37770017      -0.90986756       0.21900799
C        0.97912052      -1.13957682      -0.31091031
O        2.19315353      -1.58704174       1.68667879
C        1.69164874       0.07223747      -0.69351670
C        3.03093426       0.20253306      -0.26147042
C        3.85075924       1.23651630      -0.68780605
C        3.39894966       2.15611293      -1.63374157
C        2.09729331       2.03800330      -2.11305278
C        1.26811247       1.04227378      -1.61358094
F        0.09058652       0.91540466      -2.14794036
H       -0.47494411      -3.54651686       2.19897099
H        0.85649771      -2.56164325       1.67400481
H       -2.75221596      -3.07485276       1.58091690
H       -4.19058278      -1.06185714       1.16165469
H       -0.84097859       1.14094497      -0.27864155
H        3.36743101      -0.49051258       0.50129900
H        4.84036008       1.32843552      -0.28294830
H        4.03690903       2.95252069      -1.97229436
H        1.70451407       2.74569777      -2.83852661
29
Properties=species:S:1:pos:R:3 pbc="F F F"
N       -0.14260907      -2.82059814       1.61810638
C       -0.94129279      -2.04385747       0.96111430
C       -2.35806536      -2.15772803       1.17313289
C       -3.12265493      -1.05570144       0.98119200
C       -2.55026035       0.10042050       0.48624114
C       -3.39767320       1.27559061       0.16631870
F       -2.88248064       2.07789660      -0.76963907
F       -4.62493823       0.93028313      -0.25301057
F       -3.57454097       2.03526682       1.26832809
C       -1.17119907       0.20216251       0.17676277
C       -0.37767778      -0.90978417       0.21869969
C        0.97920834      -1.13978735      -0.31093102
O        2.19322862      -1.58707403       1.68665199
C        1.69142099       0.07199768      -0.69351439
C        3.03065031       0.20203725      -0.26142038
C        3.84988700       1.23561821      -0.68712472
C        3.39776138       2.15529073      -1.63295175
C        2.09709510       2.03750669      -2.11282666
C        1.26778710       1.04229644      -1.61358316
F        0.08903033       0.91623706      -2.14824176
H       -0.47375466      -3.54537239       2.19912561
H        0.85704548      -2.55947701       1.67314679
H       -2.75157190      -3.07514860       1.58137764
H       -4.19047840      -1.06179533       1.16170339
H       -0.84009029       1.14019909      -0.27919590
H        3.36489102      -0.49172818       0.50235583
H        4.84036633       1.32782811      -0.28235561
H        4.03636621       2.95227603      -1.97133018
H        1.70454945       2.74514467      -2.83813208
29
Properties=species:S:1:pos:R:3 pbc="F F F"
N       -0.14197935      -2.81818492       1.61709613
C       -0.94073213      -2.04379384       0.96062675
C       -2.35796242      -2.15782111       1.17298938
C       -3.12243054      -1.05554588       0.98106379
C       -2.55008665       0.10167022       0.48575580
C       -3.39771087       1.27530997       0.16623479
F       -2.88037367       2.07776055      -0.77007461
F       -4.62482453       0.92919740      -0.25303852
F       -3.57470566       2.03519052       1.26812995
C       -1.17083618       0.20262463       0.17639515
C       -0.37765111      -0.90970619       0.21839212
C        0.97930058      -1.14000750      -0.31096691
O        2.19332876      -1.58710874       1.68664235
C        1.69121666       0.07175919      -0.69352627
C        3.03036461       0.20153461      -0.26137595
C        3.84902102       1.23471346      -0.68644374
C        3.39655110       2.15445509      -1.63215242
C        2.09689908       2.03701379      -2.11260679
C        1.26745540       1.04231593      -1.61359176
F        0.08747271       0.91704994      -2.14852176
H       -0.47257341      -3.54423947       2.19927696
H        0.85762766      -2.55733796       1.67227752
H       -2.75093615      -3.07544860       1.58183918
H       -4.19036888      -1.06173164       1.16174860
H       -0.83920835       1.13946538      -0.27971972
H        3.36240055      -0.49295340       0.50339940
H        4.84037786       1.32721972      -0.28176385
H        4.03579347       2.95200762      -1.97034892
H        1.70457044       2.74459123      -2.83773663
29
Properties=species:S:1:pos:R:3 pbc="F F F"
N       -0.14134931      -2.81581202       1.61608626
C       -0.94018603      -2.04373994       0.96014957
C       -2.35785553      -2.15791221       1.17283920
C       -3.12218323      -1.05535812       0.98091745
C       -2.54988035       0.10296762       0.48524579
C       -3.39769945       1.27504646       0.16615745
F       -2.87837973       2.07763976      -0.77043831
F       -4.62472671       0.92815258      -0.25307780
F       -3.57491844       2.03514374       1.26787332
C       -1.17048445       0.20307322       0.17603866
C       -0.37761931      -0.90963347       0.21808497
C        0.97939915      -1.14023783      -0.31101996
O        2.19345785      -1.58714453       1.68665152
C        1.69103595       0.07152178      -0.69355096
C        3.03007961       0.20102495      -0.26133644
C        3.84816762       1.23380568      -0.68576457
C        3.39532379       2.15360790      -1.63134529
C        2.09670708       2.03652461      -2.11239252
C        1.26711901       1.04233107      -1.61360496
F        0.08591721       0.91784399      -2.14877727
H       -0.47140404      -3.54312301       2.19942504
H        0.85824093      -2.55522512       1.67139900
H       -2.75030909      -3.07575233       1.58230152
H       -4.19025021      -1.06166752       1.16178954
H       -0.83833068       1.13874315      -0.28021616
H        3.35996108      -0.49418419       0.50442836
H        4.84039655       1.32661099      -0.28117297
H        4.03519333       2.95171499      -1.96935112
H        1.70457739       2.74403780      -2.83733937
29
Properties=species:S:1:pos:R:3 pbc="F F F"
N       -0.14072180      -2.81348248       1.61508014
C       -0.93965399      -2.04369600       0.95968379
C       -2.35774397      -2.15800170       1.17268317
C       -3.12191132      -1.05514145       0.98075263
C       -2.54963317       0.10431902       0.48470532
C       -3.39765083       1.27479914       0.16610639
F       -2.87652282       2.07753370      -0.77073125
F       -4.62464213       0.92715067      -0.25312765
F       -3.57518407       2.03512604       1.26755105
C       -1.17014177       0.20350606       0.17569264
C       -0.37758172      -0.90956593       0.21777735
C        0.97950581      -1.14047916      -0.31109352
O        2.19361916      -1.58718053       1.68668079
C        1.69087868       0.07128511      -0.69358744
C        3.02979764       0.20050796      -0.26130172
C        3.84733215       1.23289792      -0.68508912
C        3.39408445       2.15275115      -1.63053285
C        2.09652082       2.03603932      -2.11218392
C        1.26677975       1.04234062      -1.61362154
F        0.08436712       0.91861934      -2.14900564
H       -0.47025017      -3.54202812       2.19956937
H        0.85888171      -2.55313833       1.67051325
H       -2.74969167      -3.07605938       1.58276417
H       -4.19011927      -1.06160398       1.16182465
H       -0.83745576       1.13803183      -0.28068890
H        3.35757384      -0.49541676       0.50544086
H        4.84042441       1.32600285      -0.28058378
H        4.03456841       2.95139816      -1.96833819
H        1.70457048       2.74348493      -2.83694007
29
Properties=species:S:1:pos:R:3 pbc="F F F"
N       -0.14009928      -2.81119984       1.61408117
C       -0.93913501      -2.04366280       0.95923025
C       -2.35762690      -2.15809049       1.17252233
C       -3.12161281      -1.05489984       0.98056906
C       -2.54933630       0.10573069       0.48412866
C       -3.39758993       1.27459010       0.16608987
F       -2.87482100       2.07744082      -0.77095612
F       -4.62456783       0.92619526      -0.25318641
F       -3.57550052       2.03512961       1.26716253
C       -1.16980535       0.20391993       0.17535604
C       -0.37753756      -0.90950425       0.21746865
C        0.97962205      -1.14073282      -0.31119134
O        2.19381507      -1.58721669       1.68673161
C        1.69074432       0.07104799      -0.69363429
C        3.02952056       0.19998255      -0.26127144
C        3.84651874       1.23199176      -0.68441874
C        3.39283751       2.15188574      -1.62971721
C        2.09634173       2.03555698      -2.11198056
C        1.26643948       1.04234241      -1.61363972
F        0.08282566       0.91937473      -2.14920378
H       -0.46911244      -3.54095716       2.19970973
H        0.85954635      -2.55107827       1.66962266
H       -2.74908438      -3.07636955       1.58322660
H       -4.18997265      -1.06154233       1.16185237
H       -0.83658217       1.13732987      -0.28114117
H        3.35523925      -0.49664832       0.50643528
H        4.84046279       1.32539559      -0.27999704
H        4.03392087       2.95105626      -1.96731116
H        1.70454976       2.74293206      -2.83653784
29
Properties=species:S:1:pos:R:3 pbc="F F F"
N       -0.13948448      -2.80896716       1.61309316
C       -0.93862838      -2.04364049       0.95878992
C       -2.35750445      -2.15817898       1.17235812
C       -3.12128663      -1.05463655       0.98036700
C       -2.54898212       0.10720967       0.48351082
C       -3.39753300       1.27442972       0.16609787
F       -2.87328786       2.07735982      -0.77111692
F       -4.62450194       0.92529255      -0.25325153
F       -3.57585874       2.03514115       1.26671605
C       -1.16947254       0.20431222       0.17502770
C       -0.37748670      -0.90944880       0.21715905
C        0.97974840      -1.14099915      -0.31131730
O        2.19404684      -1.58725263       1.68680611
C        1.69063178       0.07080999      -0.69368971
C        3.02924968       0.19944830      -0.26124480
C        3.84573043       1.23108905      -0.68375404
C        3.39158675       2.15101336      -1.62890009
C        2.09617053       2.03507755      -2.11178175
C        1.26609955       1.04233512      -1.61365740
F        0.08129527       0.92010943      -2.14936863
H       -0.46799368      -3.53991408       2.19984613
H        0.86023077      -2.54904549       1.66873036
H       -2.74848841      -3.07668193       1.58368879
H       -4.18980826      -1.06148301       1.16187177
H       -0.83570954       1.13663646      -0.28157550
H        3.35295695      -0.49787572       0.50741046
H        4.84051255       1.32479049      -0.27941338
H        4.03325248       2.95068955      -1.96627071
H        1.70451474       2.74237957      -2.83613153
29
Properties=species:S:1:pos:R:3 pbc="F F F"
N       -0.13888021      -2.80678671       1.61211927
C       -0.93813365      -2.04362846       0.95836297
C       -2.35737741      -2.15826678       1.17219149
C       -3.12093242      -1.05435407       0.98014644
C       -2.54856466       0.10876288       0.48284723
C       -3.39748794       1.27431691       0.16612318
F       -2.87193255       2.07728901      -0.77121973
F       -4.62444316       0.92445048      -0.25332050
F       -3.57624204       2.03514364       1.26622812
C       -1.16914057       0.20468104       0.17470549
C       -0.37742962      -0.90939977       0.21684884
C        0.97988427      -1.14127724      -0.31147608
O        2.19431427      -1.58728756       1.68690608
C        1.69053930       0.07057135      -0.69375229
C        3.02898549       0.19890547      -0.26122143
C        3.84496894       1.23019181      -0.68309565
C        3.39033494       2.15013614      -1.62808346
C        2.09600710       2.03460148      -2.11158713
C        1.26576058       1.04231818      -1.61367278
F        0.07977771       0.92082305      -2.14949784
H       -0.46689775      -3.53890293       2.19997795
H        0.86093041      -2.54704015       1.66783915
H       -2.74790531      -3.07699478       1.58415031
H       -4.18962489      -1.06142579       1.16188183
H       -0.83483845       1.13595133      -0.28199428
H        3.35072551      -0.49909564       0.50836495
H        4.84057367       1.32418957      -0.27883390
H        4.03256421       2.95029908      -1.96521786
H        1.70446423       2.74182847      -2.83572037
29
Properties=species:S:1:pos:R:3 pbc="F F F"
N       -0.13828905      -2.80466043       1.61116213
C       -0.93765056      -2.04362578       0.95794899
C       -2.35724705      -2.15835330       1.17202295
C       -3.12055051      -1.05405447       0.97990739
C       -2.54808026       0.11039584       0.48213442
C       -3.39745903       1.27424691       0.16616106
F       -2.87075911       2.07722578      -0.77127296
F       -4.62439073       0.92367741      -0.25339102
F       -3.57662854       2.03512018       1.26572105
C       -1.16880650       0.20502486       0.17438659
C       -0.37736723      -0.90935774       0.21653867
C        0.98002814      -1.14156515      -0.31167286
O        2.19461603      -1.58732073       1.68703315
C        1.69046476       0.07033260      -0.69382104
C        3.02872800       0.19835458      -0.26120128
C        3.84423525       1.22930197      -0.68244424
C        3.38908417       2.14925638      -1.62726950
C        2.09585073       2.03412947      -2.11139667
C        1.26542264       1.04229144      -1.61368444
F        0.07827428       0.92151519      -2.14958997
H       -0.46582834      -3.53792719       2.20010432
H        0.86164038      -2.54506249       1.66695149
H       -2.74733704      -3.07730614       1.58461042
H       -4.18942229      -1.06137026       1.16188177
H       -0.83397020       1.13527433      -0.28239957
H        3.34854288      -0.50030508       0.50929719
H        4.84064573       1.32359519      -0.27826007
H        4.03185674       2.94988643      -1.96415389
H        1.70439670       2.74128018      -2.83530407
29
Properties=species:S:1:pos:R:3 pbc="F F F"
N       -0.13771316      -2.80258947       1.61022367
C       -0.93717885      -2.04363112       0.95754700
C       -2.35711466      -2.15843751       1.17185252
C       -3.12014143      -1.05373935       0.97964986
C       -2.54752808       0.11211169       0.48137065
C       -3.39744754       1.27421296       0.16620765
F       -2.86976428       2.07716651      -0.77128709
F       -4.62434367       0.92298017      -0.25346112
F       -3.57699394       2.03505763       1.26521972
C       -1.16846701       0.20534237       0.17406767
C       -0.37730070      -0.90932351       0.21622953
C        0.98017762      -1.14185977      -0.31191291
O        2.19494944      -1.58735143       1.68718854
C        1.69040566       0.07009437      -0.69389509
C        3.02847653       0.19779632      -0.26118447
C        3.84352921       1.22842111      -0.68180031
C        3.38783554       2.14837605      -1.62646012
C        2.09570005       2.03366196      -2.11121020
C        1.26508513       1.04225491      -1.61369101
F        0.07678589       0.92218531      -2.14964397
H       -0.46478877      -3.53698934       2.20022404
H        0.86235543      -2.54311238       1.66606924
H       -2.74678548      -3.07761361       1.58506800
H       -4.18920046      -1.06131593       1.16187113
H       -0.83310612       1.13460487      -0.28279294
H        3.34640605      -0.50150159       0.51020580
H        4.84072746       1.32300967      -0.27769342
H        4.03113000       2.94945313      -1.96308003
H        1.70431013       2.74073597      -2.83488234
29
Properties=species:S:1:pos:R:3 pbc="F F F"
N       -0.13715422      -2.80057480       1.60930546
C       -0.93671838      -2.04364306       0.95715583
C       -2.35698173      -2.15851837       1.17168011
C       -3.11970625      -1.05341003       0.97937422
C       -2.54691107       0.11391018       0.48055669
C       -3.39745270       1.27420614       0.16625906
F       -2.86893715       2.07710750      -0.77127385
F       -4.62430140       0.92236198      -0.25352940
F       -3.57731580       2.03495021       1.26474892
C       -1.16811869       0.20563245       0.17374522
C       -0.37723131      -0.90929803       0.21592262
C        0.98032976      -1.14215696      -0.31220122
O        2.19531085      -1.58737926       1.68737334
C        1.69035949       0.06985736      -0.69397371
C        3.02823038       0.19723152      -0.26117122
C        3.84285053       1.22755075      -0.68116430
C        3.38658996       2.14749721      -1.62565723
C        2.09555351       2.03319951      -2.11102773
C        1.26474710       1.04220890      -1.61369138
F        0.07531323       0.92283281      -2.14965950
H       -0.46378200      -3.53609152       2.20033613
H        0.86307013      -2.54118974       1.66519402
H       -2.74625284      -3.07791498       1.58552190
H       -4.18896029      -1.06126254       1.16185011
H       -0.83224740       1.13394208      -0.28317538
H        3.34431210      -0.50268336       0.51108980
H        4.84081772       1.32243547      -0.27713556
H        4.03038400       2.94900113      -1.96199770
H        1.70420248       2.74019743      -2.83445525
29
Properties=species:S:1:pos:R:3 pbc="F F F"
N       -0.13661318      -2.79861668       1.60840860
C       -0.93626866      -2.04365989       0.95677402
C       -2.35684941      -2.15859462       1.17150543
C       -3.11924586      -1.05306743       0.97908107
C       -2.54623572       0.11578622       0.47969636
C       -3.39747272       1.27421747       0.16631094
F       -2.86826040       2.07704520      -0.77124490
F       -4.62426285       0.92181981      -0.25359524
F       -3.57757703       2.03480077       1.26432976
C       -1.16775788       0.20589434       0.17341560
C       -0.37716012      -0.90928198       0.21561912
C        0.98048139      -1.14245148      -0.31254222
O        2.19569567      -1.58740392       1.68758819
C        1.69032395       0.06962235      -0.69405616
C        3.02798878       0.19666101      -0.26116166
C        3.84219863       1.22669220      -0.68053642
C        3.38534789       2.14662167      -1.62486232
C        2.09540946       2.03274253      -2.11084905
C        1.26440741       1.04215384      -1.61368446
F        0.07385680       0.92345717      -2.14963653
H       -0.46281026      -3.53523515       2.20043971
H        0.86377914      -2.53929396       1.66432696
H       -2.74574092      -3.07820795       1.58597099
H       -4.18870281      -1.06121007       1.16181944
H       -0.83139472       1.13328458      -0.28354728
H        3.34225806      -0.50384924       0.51194882
H        4.84091523       1.32187495      -0.27658792
H        4.02961845       2.94853232      -1.96090816
H        1.70407167       2.73966594      -2.83402268
29
Properties=species:S:1:pos:R:3 pbc="F F F"
N       -0.13609019      -2.79671467       1.60753376
C       -0.93582873      -2.04367964       0.95639996
C       -2.35671844      -2.15866482       1.17132822
C       -3.11876084      -1.05271200       0.97877138
C       -2.54551163       0.11772826       0.47879708
C       -3.39750493       1.27423850       0.16635850
F       -2.86771327       2.07697662      -0.77121060
F       -4.62422656       0.92134268      -0.25365893
F       -3.57776900       2.03462008       1.26397670
C       -1.16738103       0.20612778       0.17307541
C       -0.37708772      -0.90927559       0.21532007
C        0.98062954      -1.14273714      -0.31293971
O        2.19609873      -1.58742526       1.68783339
C        1.69029727       0.06939028      -0.69414170
C        3.02775146       0.19608571      -0.26115578
C        3.84157325       1.22584689      -0.67991673
C        3.38410994       2.14575140      -1.62407659
C        2.09526651       2.03229156      -2.11067389
C        1.26406505       1.04209046      -1.61366920
F        0.07241710       0.92405816      -2.14957533
H       -0.46187501      -3.53442108       2.20053434
H        0.86447754      -2.53742382       1.66346888
H       -2.74525114      -3.07849038       1.58641438
H       -4.18842934      -1.06115879       1.16178045
H       -0.83054844       1.13263096      -0.28390838
H        3.34024161      -0.50499861       0.51278316
H        4.84101918       1.32133054      -0.27605178
H        4.02883321       2.94804887      -1.95981266
H        1.70391588       2.73914303      -2.83358441
29
Properties=species:S:1:pos:R:3 pbc="F F F"
N       -0.13558470      -2.79486686       1.60668095
C       -0.93539699      -2.04369972       0.95603189
C       -2.35658891      -2.15872700       1.17114816
C       -3.11825113      -1.05234355       0.97844629
C       -2.54475006       0.11971876       0.47786932
C       -3.39754401       1.27425926       0.16639653
F       -2.86727236       2.07689981      -0.77117874
F       -4.62419000       0.92091182      -0.25372157
F       -3.57789203       2.03442321       1.26369551
C       -1.16698540       0.20633268       0.17272214
C       -0.37701418      -0.90927819       0.21502626
C        0.98077140      -1.14300660      -0.31339656
O        2.19651411      -1.58744294       1.68810864
C        1.69027815       0.06916244      -0.69422950
C        3.02751837       0.19550673      -0.26115329
C        3.84097411       1.22501644      -0.67930507
C        3.38287638       2.14488845      -1.62330072
C        2.09512329       2.03184726      -2.11050164
C        1.26371906       1.04201983      -1.61364445
F        0.07099451       0.92463609      -2.14947622
H       -0.46097684      -3.53364910       2.20061985
H        0.86516098      -2.53557698       1.66262010
H       -2.74478415      -3.07875980       1.58685138
H       -4.18814099      -1.06110898       1.16173486
H       -0.82970903       1.13198002      -0.28425782
H        3.33826068      -0.50613104       0.51359366
H        4.84112877       1.32080479      -0.27552811
H        4.02802770       2.94755304      -1.95871223
H        1.70373326       2.73863010      -2.83313962
