28
Properties=species:S:1:pos:R:3 pbc="F F F"
C       -4.74752808      -0.87476301       0.00000000
N       -3.38712811      -1.36695302      -0.00000300
C       -2.30301690      -0.55804503       0.00000000
O       -2.58002901       0.78532797       0.00000000
C       -0.94087201      -0.82902199       0.00000100
C       -0.09857400      -1.93662798       0.00000200
N        1.30719697      -1.68897104       0.00000000
C        2.09301400      -2.90346003       0.00000000
C        1.85398495      -0.44122601       0.00000000
C        3.24598002      -0.18621100       0.00000100
C        3.74548793       1.10796201       0.00000000
C        2.90430307       2.22903299       0.00000000
C        1.53693199       2.02709794      -0.00000100
C        0.99590099       0.72745502       0.00000000
C       -0.38678601       0.46606800       0.00000000
O       -1.33271599       1.44342995       0.00000000
H       -5.42059803      -1.73190796       0.00000000
H       -4.95107698      -0.26783100       0.88915998
H       -4.95107794      -0.26783001      -0.88915902
H       -3.20548105      -2.35708499       0.00000200
H       -0.40204200      -2.96969604      -0.00000200
H        3.15857601      -2.70115399       0.00000000
H        1.84839106      -3.49815989       0.88892299
H        1.84839106      -3.49815989      -0.88892299
H        3.95499992      -1.00291395       0.00000000
H        4.82259321       1.24390495       0.00000000
H        3.31628895       3.23158407       0.00000000
H        0.84976500       2.86781096       0.00000000
28
Properties=species:S:1:pos:R:3 pbc="F F F"
C       -4.81412338      -0.44772360      -0.00000000
N       -3.50213342      -0.97839759      -0.00000002
C       -2.44661193      -0.12576950      -0.00000001
O       -2.71646575       1.20489641      -0.00000000
C       -1.05941487      -0.32812748      -0.00000001
C       -0.15452634      -1.43483457      -0.00000000
N        1.19012029      -1.20716636      -0.00000000
C        1.97457309      -2.42147629      -0.00000000
C        1.75034459       0.03178777      -0.00000000
C        3.12507138       0.26335843      -0.00000000
C        3.66718113       1.54253574      -0.00000000
C        2.82396390       2.68335990      -0.00000000
C        1.46702398       2.51438674      -0.00000000
C        0.86619018       1.20901876      -0.00000000
C       -0.50387703       0.98843555      -0.00000000
O       -1.46386011       1.96458465      -0.00000000
H       -5.53987175      -1.28869196       0.00000004
H       -5.03393358       0.15833886       0.89333496
H       -5.03393432       0.15833886      -0.89333490
H       -3.29312449      -1.94869162      -0.00000004
H       -0.46706785      -2.47468476      -0.00000000
H        3.05438465      -2.23955043      -0.00000000
H        1.72889212      -3.00787040       0.90010124
H        1.72889212      -3.00787040      -0.90010124
H        3.81753351      -0.58893868      -0.00000000
H        4.76622757       1.67959582      -0.00000000
H        3.26676794       3.69927178      -0.00000000
H        0.80177838       3.40188437      -0.00000000
