28
Properties=species:S:1:pos:R:3 pbc="F F F"
C       -4.71024704      -0.89402503       0.00000000
N       -3.38272095      -1.43318200       0.00000000
C       -2.31250000      -0.57934201       0.00000000
O       -2.59544110       0.74186498       0.00000000
C       -0.96670002      -0.80367702       0.00000000
C       -0.05358500      -1.90017498       0.00000000
N        1.28595996      -1.67067504       0.00000000
C        2.07194400      -2.87655902       0.00000000
C        1.84962797      -0.43416199       0.00000000
C        3.22204804      -0.20682400       0.00000000
C        3.76258612       1.07677495       0.00000000
C        2.90817904       2.21728110       0.00000000
C        1.55487096       2.04980612       0.00000000
C        0.95416701       0.74597502       0.00000000
C       -0.40569201       0.52423298       0.00000000
O       -1.38284600       1.42047906       0.00000000
H       -5.43367720      -1.70712900       0.00000000
H       -4.87507582      -0.27537701       0.88860899
H       -4.87507677      -0.27537701      -0.88860899
H       -3.24172711      -2.42158198       0.00000000
H       -0.37327799      -2.93095303       0.00000000
H        3.13670611      -2.66513801       0.00000000
H        1.82856596      -3.46514392       0.88680398
H        1.82856596      -3.46514392      -0.88680398
H        3.91206193      -1.04087198       0.00000000
H        4.83635616       1.21012998       0.00000000
H        3.34904504       3.20685196       0.00000000
H        0.88276500       2.90159798       0.00000000
28
Properties=species:S:1:pos:R:3 pbc="F F F"
C       -4.81412338      -0.44772360      -0.00000000
N       -3.50213342      -0.97839759      -0.00000002
C       -2.44661193      -0.12576950      -0.00000001
O       -2.71646575       1.20489641      -0.00000000
C       -1.05941487      -0.32812748      -0.00000001
C       -0.15452634      -1.43483457      -0.00000000
N        1.19012029      -1.20716636      -0.00000000
C        1.97457309      -2.42147629      -0.00000000
C        1.75034459       0.03178777      -0.00000000
C        3.12507138       0.26335843      -0.00000000
C        3.66718113       1.54253574      -0.00000000
C        2.82396390       2.68335990      -0.00000000
C        1.46702398       2.51438674      -0.00000000
C        0.86619018       1.20901876      -0.00000000
C       -0.50387703       0.98843555      -0.00000000
O       -1.46386011       1.96458465      -0.00000000
H       -5.53987175      -1.28869196       0.00000004
H       -5.03393358       0.15833886       0.89333496
H       -5.03393432       0.15833886      -0.89333490
H       -3.29312449      -1.94869162      -0.00000004
H       -0.46706785      -2.47468476      -0.00000000
H        3.05438465      -2.23955043      -0.00000000
H        1.72889212      -3.00787040       0.90010124
H        1.72889212      -3.00787040      -0.90010124
H        3.81753351      -0.58893868      -0.00000000
H        4.76622757       1.67959582      -0.00000000
H        3.26676794       3.69927178      -0.00000000
H        0.80177838       3.40188437      -0.00000000
