28
Properties=species:S:1:pos:R:3 pbc="F F F"
C       -4.80121700      -0.44649929      -0.00000000
N       -3.50262780      -0.98435395      -0.00000002
C       -2.46251129      -0.12273023      -0.00000001
O       -2.73291184       1.19653096      -0.00000000
C       -1.05351262      -0.31762303      -0.00000001
C       -0.16385772      -1.43141647      -0.00000000
N        1.18884261      -1.21089005       0.00000000
C        1.97344794      -2.40734486       0.00000000
C        1.75327053       0.03158499       0.00000000
C        3.13216316       0.26501823       0.00000000
C        3.65436687       1.51449141       0.00000000
C        2.80327206       2.66978737       0.00000000
C        1.46563831       2.51026893       0.00000000
C        0.86186295       1.20613066       0.00000000
C       -0.51336179       0.98606732       0.00000000
O       -1.43451749       1.98272935       0.00000000
H       -5.53928188      -1.29330663       0.00000004
H       -5.04334503       0.15186161       0.88922293
H       -5.04334560       0.15186160      -0.88922288
H       -3.26930197      -1.94265042      -0.00000007
H       -0.46707630      -2.47509027       0.00000000
H        3.05009629      -2.23637615       0.00000000
H        1.73150110      -3.01359905       0.90172733
H        1.73150110      -3.01359905      -0.90172733
H        3.83692257      -0.58913077      -0.00000000
H        4.77330217       1.68622958       0.00000000
H        3.27119634       3.71053451       0.00000000
H        0.79948433       3.42151370       0.00000000
28
Properties=species:S:1:pos:R:3 pbc="F F F"
C       -4.80690660      -0.44717517      -0.00000000
N       -3.50320226      -0.98275834      -0.00000002
C       -2.46043483      -0.12451323      -0.00000001
O       -2.72937043       1.19897645      -0.00000000
C       -1.05592220      -0.31985400      -0.00000001
C       -0.16252587      -1.43328776      -0.00000000
N        1.18896797      -1.21073910       0.00000000
C        1.97377703      -2.40894859       0.00000000
C        1.75296794       0.03041557       0.00000000
C        3.12875094       0.26437434       0.00000000
C        3.65734148       1.52100682       0.00000000
C        2.80925136       2.67268941       0.00000000
C        1.46604254       2.51089947       0.00000000
C        0.86278810       1.20641210       0.00000000
C       -0.51092077       0.98688931      -0.00000000
O       -1.43958403       1.98566416      -0.00000000
H       -5.53896622      -1.29445822       0.00000005
H       -5.04252707       0.15044094       0.89002677
H       -5.04252767       0.15044095      -0.89002672
H       -3.26948656      -1.94287787      -0.00000007
H       -0.46922841      -2.47628985       0.00000000
H        3.04993109      -2.23644958       0.00000000
H        1.73073499      -3.01272565       0.90158076
H        1.73073499      -3.01272565      -0.90158076
H        3.83472924      -0.59238614      -0.00000000
H        4.77336043       1.68658170      -0.00000000
H        3.27120429       3.71059288       0.00000000
H        0.80102053       3.41980504       0.00000000
28
Properties=species:S:1:pos:R:3 pbc="F F F"
C       -4.80932630      -0.44752484      -0.00000000
N       -3.50397675      -0.98160602      -0.00000002
C       -2.45957687      -0.12505825      -0.00000001
O       -2.72730364       1.20019101      -0.00000000
C       -1.05728393      -0.32171232      -0.00000001
C       -0.16088225      -1.43419132      -0.00000000
N        1.18913270      -1.21031070       0.00000000
C        1.97406625      -2.41110274       0.00000000
C        1.75256258       0.03027533       0.00000000
C        3.12764731       0.26410773       0.00000000
C        3.65912097       1.52513121       0.00000000
C        2.81312058       2.67494799       0.00000000
C        1.46623353       2.51150808       0.00000000
C        0.86336698       1.20661150       0.00000000
C       -0.50921963       0.98735392      -0.00000000
O       -1.44278845       1.98685343      -0.00000000
H       -5.53893229      -1.29557819       0.00000005
H       -5.04277691       0.15048728       0.89007192
H       -5.04277752       0.15048729      -0.89007186
H       -3.27037205      -1.94331554      -0.00000006
H       -0.47071973      -2.47693049       0.00000000
H        3.05070615      -2.23702706       0.00000000
H        1.73051069      -3.01277242       0.90163434
H        1.73051069      -3.01277242      -0.90163434
H        3.83269551      -0.59357003      -0.00000000
H        4.77326096       1.68676456      -0.00000000
H        3.27099868       3.71066144      -0.00000000
H        0.80200277       3.41809156       0.00000000
28
Properties=species:S:1:pos:R:3 pbc="F F F"
C       -4.81083687      -0.44776644      -0.00000000
N       -3.50455283      -0.98099626      -0.00000002
C       -2.45919855      -0.12521397      -0.00000001
O       -2.72590837       1.20098759      -0.00000000
C       -1.05795212      -0.32293119      -0.00000001
C       -0.15957691      -1.43462096      -0.00000000
N        1.18929116      -1.20986966       0.00000000
C        1.97429160      -2.41327853       0.00000000
C        1.75217555       0.03036981      -0.00000000
C        3.12708696       0.26401489       0.00000000
C        3.66047065       1.52822896       0.00000000
C        2.81585881       2.67675580       0.00000000
C        1.46640797       2.51206875       0.00000000
C        0.86392272       1.20684898       0.00000000
C       -0.50799234       0.98761019      -0.00000000
O       -1.44504516       1.98730592      -0.00000000
H       -5.53902170      -1.29628541       0.00000005
H       -5.04322516       0.15067217       0.89007463
H       -5.04322578       0.15067219      -0.89007457
H       -3.27150438      -1.94372034      -0.00000006
H       -0.47139794      -2.47713057      -0.00000000
H        3.05164906      -2.23804179       0.00000000
H        1.73038342      -3.01289685       0.90172238
H        1.73038342      -3.01289685      -0.90172238
H        3.83099711      -0.59409268      -0.00000000
H        4.77312124       1.68684004      -0.00000000
H        3.27077863       3.71063084      -0.00000000
H        0.80261981       3.41673537       0.00000000
28
Properties=species:S:1:pos:R:3 pbc="F F F"
C       -4.81186430      -0.44793736      -0.00000000
N       -3.50495294      -0.98064548      -0.00000002
C       -2.45896923      -0.12524219      -0.00000001
O       -2.72492117       1.20154783      -0.00000000
C       -1.05831264      -0.32372591      -0.00000001
C       -0.15861828      -1.43483209      -0.00000000
N        1.18943711      -1.20947073       0.00000000
C        1.97443699      -2.41524060       0.00000000
C        1.75185335       0.03051719      -0.00000000
C        3.12673946       0.26399726       0.00000000
C        3.66154848       1.53066132       0.00000000
C        2.81789364       2.67819500       0.00000000
C        1.46659009       2.51256580       0.00000000
C        0.86447255       1.20711207      -0.00000000
C       -0.50704738       0.98776035      -0.00000000
O       -1.44680934       1.98732975      -0.00000000
H       -5.53912219      -1.29667471       0.00000005
H       -5.04358132       0.15082405       0.89007869
H       -5.04358195       0.15082406      -0.89007863
H       -3.27273304      -1.94407345      -0.00000006
H       -0.47161156      -2.47710233      -0.00000000
H        3.05248434      -2.23912925       0.00000000
H        1.73027522      -3.01291069       0.90177645
H        1.73027522      -3.01291069      -0.90177645
H        3.82954686      -0.59429544      -0.00000000
H        4.77295347       1.68681001      -0.00000000
H        3.27055838       3.71045095      -0.00000000
H        0.80306017       3.41559529       0.00000000
28
Properties=species:S:1:pos:R:3 pbc="F F F"
C       -4.81258150      -0.44805612       0.00000000
N       -3.50521039      -0.98042785      -0.00000002
C       -2.45873289      -0.12524318      -0.00000001
O       -2.72421608       1.20195290      -0.00000000
C       -1.05852846      -0.32427253      -0.00000001
C       -0.15790096      -1.43493705      -0.00000000
N        1.18956724      -1.20912030       0.00000000
C        1.97451219      -2.41684066       0.00000000
C        1.75159412       0.03067007      -0.00000000
C        3.12649599       0.26400887       0.00000000
C        3.66243275       1.53262583       0.00000000
C        2.81944627       2.67933482       0.00000000
C        1.46677184       2.51298966       0.00000000
C        0.86498989       1.20737434      -0.00000000
C       -0.50628870       0.98785094      -0.00000000
O       -1.44826287       1.98704487      -0.00000000
H       -5.53920492      -1.29681530       0.00000005
H       -5.04377695       0.15094512       0.89009182
H       -5.04377758       0.15094513      -0.89009176
H       -3.27401115      -1.94439148      -0.00000006
H       -0.47156758      -2.47697862      -0.00000000
H        3.05315979      -2.24011268       0.00000000
H        1.73016890      -3.01281519       0.90179771
H        1.73016890      -3.01281519      -0.90179771
H        3.82826974      -0.59430923      -0.00000000
H        4.77275103       1.68666428      -0.00000000
H        3.27034382       3.71013913      -0.00000000
H        0.80338754       3.41458939      -0.00000000
28
Properties=species:S:1:pos:R:3 pbc="F F F"
C       -4.81308761      -0.44813320       0.00000000
N       -3.50534973      -0.98028165      -0.00000002
C       -2.45840219      -0.12525756      -0.00000001
O       -2.72368630       1.20226545      -0.00000000
C       -1.05866846      -0.32467086      -0.00000001
C       -0.15734622      -1.43498450      -0.00000000
N        1.18967960      -1.20881292      -0.00000000
C        1.97454518      -2.41809641       0.00000000
C        1.75138594       0.03081705      -0.00000000
C        3.12630920       0.26402936       0.00000000
C        3.66317118       1.53424748      -0.00000000
C        2.82065410       2.68024173       0.00000000
C        1.46694610       2.51334669       0.00000000
C        0.86545210       1.20761844      -0.00000000
C       -0.50566805       0.98790879      -0.00000000
O       -1.44953129       1.98652110      -0.00000000
H       -5.53928079      -1.29677003       0.00000005
H       -5.04380995       0.15106735       0.89011984
H       -5.04381059       0.15106736      -0.89011978
H       -3.27531718      -1.94468642      -0.00000006
H       -0.47138553      -2.47683059      -0.00000000
H        3.05368262      -2.24092653       0.00000000
H        1.73006167      -3.01263547       0.90179328
H        1.73006167      -3.01263547      -0.90179328
H        3.82712236      -0.59419776      -0.00000000
H        4.77250767       1.68640675      -0.00000000
H        3.27013395       3.70971649      -0.00000000
H        0.80363053       3.41366532      -0.00000000
28
Properties=species:S:1:pos:R:3 pbc="F F F"
C       -4.81344834      -0.44817971       0.00000000
N       -3.50539145      -0.98017337      -0.00000002
C       -2.45796833      -0.12529082      -0.00000001
O       -2.72325304       1.20252345      -0.00000000
C       -1.05876341      -0.32498144      -0.00000001
C       -0.15689987      -1.43500063      -0.00000000
N        1.18977649      -1.20854343      -0.00000000
C        1.97455804      -2.41906903       0.00000000
C        1.75121830       0.03095367      -0.00000000
C        3.12615744       0.26404666       0.00000000
C        3.66379711       1.53560633      -0.00000000
C        2.82160480       2.68096509       0.00000000
C        1.46710622       2.51364119       0.00000000
C        0.86585284       1.20783512      -0.00000000
C       -0.50515793       0.98794854      -0.00000000
O       -1.45069570       1.98579337      -0.00000000
H       -5.53936947      -1.29659273       0.00000005
H       -5.04370234       0.15122755       0.89018391
H       -5.04370298       0.15122756      -0.89018385
H       -3.27663234      -1.94496446      -0.00000006
H       -0.47112072      -2.47667436      -0.00000000
H        3.05407608      -2.24156086       0.00000000
H        1.72995660      -3.01239561       0.90176608
H        1.72995660      -3.01239561      -0.90176608
H        3.82608170      -0.59400108      -0.00000000
H        4.77222970       1.68606327      -0.00000000
H        3.26992907       3.70920196      -0.00000000
H        0.80380495       3.41278940      -0.00000000
28
Properties=species:S:1:pos:R:3 pbc="F F F"
C       -4.81370883      -0.44820461       0.00000000
N       -3.50535776      -0.98007968      -0.00000002
C       -2.45743744      -0.12534060      -0.00000001
O       -2.72286586       1.20274857      -0.00000000
C       -1.05883032      -0.32524185      -0.00000001
C       -0.15653377      -1.43499849      -0.00000000
N        1.18985986      -1.20830713      -0.00000000
C        1.97456267      -2.41981871      -0.00000000
C        1.75108171       0.03107793      -0.00000000
C        3.12602851       0.26405477      -0.00000000
C        3.66433184       1.53675564      -0.00000000
C        2.82235623       2.68154271       0.00000000
C        1.46724672       2.51387963       0.00000000
C        0.86619328       1.20802222      -0.00000000
C       -0.50474108       0.98797983      -0.00000000
O       -1.45179996       1.98488304      -0.00000000
H       -5.53946692      -1.29630628       0.00000005
H       -5.04347411       0.15144271       0.89028736
H       -5.04347476       0.15144272      -0.89028730
H       -3.27794154      -1.94522852      -0.00000005
H       -0.47080616      -2.47651673      -0.00000000
H        3.05436177      -2.24202655       0.00000000
H        1.72985560      -3.01211436       0.90171861
H        1.72985560      -3.01211437      -0.90171861
H        3.82513422      -0.59374583      -0.00000000
H        4.77192280       1.68565674      -0.00000000
H        3.26972882       3.70861555      -0.00000000
H        0.80391884       3.41194165      -0.00000000
28
Properties=species:S:1:pos:R:3 pbc="F F F"
C       -4.81389943      -0.44821395       0.00000000
N       -3.50526708      -0.97998493      -0.00000002
C       -2.45682047      -0.12540151      -0.00000001
O       -2.72249345       1.20295374      -0.00000000
C       -1.05887974      -0.32547582      -0.00000001
C       -0.15622570      -1.43498583      -0.00000000
N        1.18993142      -1.20809983      -0.00000000
C        1.97456504      -2.42039478      -0.00000000
C        1.75096857       0.03118947      -0.00000000
C        3.12591532       0.26405174      -0.00000000
C        3.66479135       1.53773581      -0.00000000
C        2.82294871       2.68200406       0.00000000
C        1.46736420       2.51407001       0.00000000
C        0.86647387       1.20818095      -0.00000000
C       -0.50440455       0.98800951      -0.00000000
O       -1.45286618       1.98380721      -0.00000000
H       -5.53956670      -1.29592893       0.00000005
H       -5.04314033       0.15171795       0.89042431
H       -5.04314099       0.15171796      -0.89042425
H       -3.27923404      -1.94548259      -0.00000005
H       -0.47046364      -2.47636076      -0.00000000
H        3.05455777      -2.24234096       0.00000000
H        1.72975963      -3.01180499       0.90165332
H        1.72975963      -3.01180499      -0.90165332
H        3.82426666      -0.59344900      -0.00000000
H        4.77159079       1.68520358      -0.00000000
H        3.26953249       3.70797610      -0.00000000
H        0.80397680       3.41111078      -0.00000000
28
Properties=species:S:1:pos:R:3 pbc="F F F"
C       -4.81404076      -0.44821192       0.00000000
N       -3.50512979      -0.97988260      -0.00000002
C       -2.45612912      -0.12546789      -0.00000001
O       -2.72211149       1.20314813      -0.00000000
C       -1.05891896      -0.32569883      -0.00000001
C       -0.15596220      -1.43496687      -0.00000000
N        1.18999231      -1.20791821      -0.00000000
C        1.97456767      -2.42083576      -0.00000000
C        1.75087270       0.03128875      -0.00000000
C        3.12581326       0.26403747      -0.00000000
C        3.66518729       1.53857692      -0.00000000
C        2.82341152       2.68237202       0.00000000
C        1.46745649       2.51421993      -0.00000000
C        0.86669478       1.20831404      -0.00000000
C       -0.50413844       0.98804200      -0.00000000
O       -1.45390355       1.98258342      -0.00000000
H       -5.53966311      -1.29547780       0.00000005
H       -5.04271297       0.15205441       0.89058937
H       -5.04271364       0.15205442      -0.89058930
H       -3.28050438      -1.94573195      -0.00000005
H       -0.47010894      -2.47620793      -0.00000000
H        3.05467866      -2.24252282       0.00000000
H        1.72966871      -3.01147675       0.90157238
H        1.72966871      -3.01147675      -0.90157239
H        3.82346844      -0.59312205      -0.00000000
H        4.77123708       1.68471742      -0.00000000
H        3.26933859       3.70729887      -0.00000000
H        0.80398114       3.41029033      -0.00000000
28
Properties=species:S:1:pos:R:3 pbc="F F F"
C       -4.81414654      -0.44820149       0.00000000
N       -3.50495301      -0.97977033      -0.00000002
C       -2.45537392      -0.12553505      -0.00000001
O       -2.72170285       1.20333732      -0.00000000
C       -1.05895332      -0.32592023      -0.00000001
C       -0.15573470      -1.43494438      -0.00000000
N        1.19004294      -1.20775983      -0.00000000
C        1.97457088      -2.42116881      -0.00000000
C        1.75078948       0.03137618      -0.00000000
C        3.12571880       0.26401248      -0.00000000
C        3.66552832       1.53930180      -0.00000000
C        2.82376630       2.68266406      -0.00000000
C        1.46752189       2.51433556      -0.00000000
C        0.86685992       1.20842525      -0.00000000
C       -0.50393531       0.98807939      -0.00000000
O       -1.45491349       1.98123310      -0.00000000
H       -5.53975131      -1.29497112       0.00000005
H       -5.04220122       0.15245086       0.89077838
H       -5.04220189       0.15245087      -0.89077831
H       -3.28175080      -1.94598210      -0.00000005
H       -0.46975337      -2.47605887      -0.00000000
H        3.05473585      -2.24259033       0.00000000
H        1.72958205      -3.01113624       0.90147756
H        1.72958205      -3.01113624      -0.90147756
H        3.82273105      -0.59277355      -0.00000000
H        4.77086484       1.68421018      -0.00000000
H        3.26914484       3.70659496      -0.00000000
H        0.80393251       3.40947654      -0.00000000
28
Properties=species:S:1:pos:R:3 pbc="F F F"
C       -4.81422548      -0.44818381       0.00000000
N       -3.50474237      -0.97964716      -0.00000002
C       -2.45456366      -0.12559912      -0.00000001
O       -2.72125962       1.20352423      -0.00000000
C       -1.05898668      -0.32614506      -0.00000001
C       -0.15553598      -1.43492027      -0.00000000
N        1.19008373      -1.20762276      -0.00000000
C        1.97457443      -2.42141562      -0.00000000
C        1.75071575       0.03145282      -0.00000000
C        3.12562977       0.26397790      -0.00000000
C        3.66582155       1.53992846      -0.00000000
C        2.82403005       2.68289418      -0.00000000
C        1.46755971       2.51442213      -0.00000000
C        0.86697285       1.20851873      -0.00000000
C       -0.50378863       0.98812236      -0.00000000
O       -1.45590663       1.97976237      -0.00000000
H       -5.53982927      -1.29441844       0.00000005
H       -5.04161192       0.15290568       0.89098880
H       -5.04161259       0.15290569      -0.89098873
H       -3.28297473      -1.94623799      -0.00000005
H       -0.46940478      -2.47591367      -0.00000000
H        3.05475163      -2.24255659      -0.00000000
H        1.72949898      -3.01078809       0.90137040
H        1.72949898      -3.01078809      -0.90137040
H        3.82204804      -0.59240990      -0.00000000
H        4.77047657       1.68369111      -0.00000000
H        3.26894915       3.70587285      -0.00000000
H        0.80383116       3.40866810      -0.00000000
28
Properties=species:S:1:pos:R:3 pbc="F F F"
C       -4.81428298      -0.44815936      -0.00000000
N       -3.50450225      -0.97951325      -0.00000002
C       -2.45370557      -0.12565744      -0.00000001
O       -2.72077896       1.20370970      -0.00000000
C       -1.05902223      -0.32637579      -0.00000001
C       -0.15536054      -1.43489611      -0.00000000
N        1.19011450      -1.20750555      -0.00000000
C        1.97457715      -2.42159217      -0.00000000
C        1.75064864       0.03151968      -0.00000000
C        3.12554407       0.26393475      -0.00000000
C        3.66607201       1.54047050      -0.00000000
C        2.82421571       2.68307289      -0.00000000
C        1.46756957       2.51448291      -0.00000000
C        0.86703584       1.20859821      -0.00000000
C       -0.50369243       0.98816973      -0.00000000
O       -1.45689278       1.97817490      -0.00000000
H       -5.53989611      -1.29382458       0.00000005
H       -5.04094958       0.15341704       0.89121929
H       -5.04095026       0.15341705      -0.89121923
H       -3.28418035      -1.94650443      -0.00000005
H       -0.46906887      -2.47577216      -0.00000000
H        3.05475692      -2.24242822      -0.00000000
H        1.72941828      -3.01043557       0.90125209
H        1.72941828      -3.01043557      -0.90125209
H        3.82141325      -0.59203643      -0.00000000
H        4.77007301       1.68316664      -0.00000000
H        3.26874894       3.70513837      -0.00000000
H        0.80367671       3.40786429      -0.00000000
28
Properties=species:S:1:pos:R:3 pbc="F F F"
C       -4.81432151      -0.44812841      -0.00000000
N       -3.50423521      -0.97936969      -0.00000002
C       -2.45280436      -0.12570852      -0.00000001
O       -2.72026027       1.20389319      -0.00000000
C       -1.05906172      -0.32661329      -0.00000001
C       -0.15520362      -1.43487343      -0.00000000
N        1.19013585      -1.20740726      -0.00000000
C        1.97457846      -2.42170669      -0.00000000
C        1.75058702       0.03157748      -0.00000000
C        3.12546091       0.26388382      -0.00000000
C        3.66628467       1.54093801      -0.00000000
C        2.82433458       2.68320801      -0.00000000
C        1.46755311       2.51451926      -0.00000000
C        0.86705005       1.20866729      -0.00000000
C       -0.50363976       0.98821881      -0.00000000
O       -1.45787377       1.97648442      -0.00000000
H       -5.53995060      -1.29319225       0.00000005
H       -5.04021574       0.15398312       0.89146953
H       -5.04021643       0.15398313      -0.89146946
H       -3.28537387      -1.94678668      -0.00000005
H       -0.46874864      -2.47563432      -0.00000000
H        3.05475268      -2.24221725      -0.00000000
H        1.72933964      -3.01008120       0.90112343
H        1.72933964      -3.01008120      -0.90112343
H        3.82082140      -0.59165784      -0.00000000
H        4.76965512       1.68264119      -0.00000000
H        3.26854267       3.70439570      -0.00000000
H        0.80346970       3.40706464      -0.00000000
28
Properties=species:S:1:pos:R:3 pbc="F F F"
C       -4.81434233      -0.44809062      -0.00000000
N       -3.50394331      -0.97921788      -0.00000002
C       -2.45186344      -0.12575125      -0.00000001
O       -2.71970508       1.20407406      -0.00000000
C       -1.05910634      -0.32685718      -0.00000001
C       -0.15506161      -1.43485338      -0.00000000
N        1.19014869      -1.20732717      -0.00000000
C        1.97457813      -2.42177011      -0.00000000
C        1.75053077       0.03162707      -0.00000000
C        3.12538052       0.26382602      -0.00000000
C        3.66646440       1.54133891      -0.00000000
C        2.82439638       2.68330576      -0.00000000
C        1.46751342       2.51453232      -0.00000000
C        0.86701400       1.20873045      -0.00000000
C       -0.50362322       0.98826634      -0.00000000
O       -1.45885177       1.97470464      -0.00000000
H       -5.53999226      -1.29252352       0.00000005
H       -5.03941046       0.15460285       0.89174015
H       -5.03941116       0.15460285      -0.89174009
H       -3.28656713      -1.94709091      -0.00000005
H       -0.46844560      -2.47550032      -0.00000000
H        3.05473982      -2.24193302      -0.00000000
H        1.72926313      -3.00972677       0.90098507
H        1.72926313      -3.00972677      -0.90098507
H        3.82026656      -0.59127807      -0.00000000
H        4.76922425       1.68211872      -0.00000000
H        3.26832955       3.70364883      -0.00000000
H        0.80321096       3.40626816      -0.00000000
28
Properties=species:S:1:pos:R:3 pbc="F F F"
C       -4.81434467      -0.44804521      -0.00000000
N       -3.50362763      -0.97905940      -0.00000002
C       -2.45088498      -0.12578480      -0.00000001
O       -2.71911587       1.20425113      -0.00000000
C       -1.05915674      -0.32710674      -0.00000001
C       -0.15493190      -1.43483689      -0.00000000
N        1.19015384      -1.20726461      -0.00000000
C        1.97457538      -2.42179015      -0.00000000
C        1.75048005       0.03166916      -0.00000000
C        3.12530336       0.26376210      -0.00000000
C        3.66661539       1.54167845      -0.00000000
C        2.82440811       2.68336971      -0.00000000
C        1.46745295       2.51452415      -0.00000000
C        0.86692821       1.20879029      -0.00000000
C       -0.50363577       0.98830929      -0.00000000
O       -1.45983033       1.97284564      -0.00000000
H       -5.54002000      -1.29181974       0.00000005
H       -5.03853126       0.15527529       0.89203231
H       -5.03853197       0.15527528      -0.89203224
H       -3.28777116      -1.94742214      -0.00000004
H       -0.46815991      -2.47537021      -0.00000000
H        3.05471800      -2.24158195      -0.00000000
H        1.72918858      -3.00937293       0.90083728
H        1.72918858      -3.00937293      -0.90083728
H        3.81973797      -0.59090073      -0.00000000
H        4.76878113       1.68160252      -0.00000000
H        3.26810849       3.70290085      -0.00000000
H        0.80290215       3.40547458      -0.00000000
28
Properties=species:S:1:pos:R:3 pbc="F F F"
C       -4.81432550      -0.44799096      -0.00000000
N       -3.50328825      -0.97889638      -0.00000002
C       -2.44987019      -0.12580873      -0.00000001
O       -2.71849540       1.20442263      -0.00000000
C       -1.05921264      -0.32736109      -0.00000001
C       -0.15481195      -1.43482536      -0.00000000
N        1.19015277      -1.20721941      -0.00000000
C        1.97456811      -2.42176459      -0.00000000
C        1.75043574       0.03170393      -0.00000000
C        3.12523190       0.26369219      -0.00000000
C        3.66674329       1.54195776      -0.00000000
C        2.82437147       2.68339999      -0.00000000
C        1.46737383       2.51449788      -0.00000000
C        0.86679733       1.20884723      -0.00000000
C       -0.50367132       0.98834583      -0.00000000
O       -1.46081421       1.97091184      -0.00000000
H       -5.54003170      -1.29108263       0.00000005
H       -5.03757260       0.15599883       0.89234753
H       -5.03757331       0.15599883      -0.89234746
H       -3.28899843      -1.94778395      -0.00000004
H       -0.46788963      -2.47524469      -0.00000000
H        3.05468576      -2.24116795      -0.00000000
H        1.72911615      -3.00901965       0.90068001
H        1.72911615      -3.00901965      -0.90068001
H        3.81921004      -0.59052664      -0.00000000
H        4.76832695       1.68109589      -0.00000000
H        3.26787835       3.70215453      -0.00000000
H        0.80254728       3.40468435      -0.00000000
28
Properties=species:S:1:pos:R:3 pbc="F F F"
C       -4.81428085      -0.44792730      -0.00000000
N       -3.50292499      -0.97873281      -0.00000002
C       -2.44882000      -0.12582373      -0.00000001
O       -2.71784624       1.20458518      -0.00000000
C       -1.05927337      -0.32762100      -0.00000001
C       -0.15469934      -1.43482299      -0.00000000
N        1.19014714      -1.20719307      -0.00000000
C        1.97456087      -2.42169592      -0.00000000
C        1.75039899       0.03172988      -0.00000000
C        3.12518228       0.26360617      -0.00000000
C        3.66686909       1.54216363      -0.00000000
C        2.82428373       2.68339668      -0.00000000
C        1.46727778       2.51445637      -0.00000000
C        0.86662763       1.20889955      -0.00000000
C       -0.50372480       0.98837370      -0.00000000
O       -1.46180918       1.96890036      -0.00000000
H       -5.54002389      -1.29031623       0.00000005
H       -5.03652396       0.15676868       0.89268742
H       -5.03652468       0.15676867      -0.89268735
H       -3.29027017      -1.94817629      -0.00000004
H       -0.46762701      -2.47512662      -0.00000000
H        3.05463792      -2.24069356      -0.00000000
H        1.72904554      -3.00866674       0.90051256
H        1.72904554      -3.00866674      -0.90051256
H        3.81861945      -0.59010328      -0.00000000
H        4.76786206       1.68060525      -0.00000000
H        3.26763345       3.70141255      -0.00000000
H        0.80215702       3.40389960      -0.00000000
28
Properties=species:S:1:pos:R:3 pbc="F F F"
C       -4.81420723      -0.44784072      -0.00000000
N       -3.50253546      -0.97856228      -0.00000002
C       -2.44773000      -0.12581339      -0.00000001
O       -2.71716561       1.20474643      -0.00000000
C       -1.05933598      -0.32787530      -0.00000001
C       -0.15459841      -1.43483070      -0.00000000
N        1.19014074      -1.20717430      -0.00000000
C        1.97457273      -2.42159527      -0.00000000
C        1.75037330       0.03175873      -0.00000000
C        3.12513224       0.26348312      -0.00000000
C        3.66704566       1.54235793      -0.00000000
C        2.82414971       2.68338016      -0.00000000
C        1.46716735       2.51441793      -0.00000000
C        0.86642806       1.20895793      -0.00000000
C       -0.50378969       0.98840430      -0.00000000
O       -1.46282018       1.96680475      -0.00000000
H       -5.53998202      -1.28951556       0.00000004
H       -5.03534545       0.15758135       0.89305008
H       -5.03534618       0.15758134      -0.89305001
H       -3.29164726      -1.94854334      -0.00000004
H       -0.46732179      -2.47491396      -0.00000000
H        3.05455461      -2.24014513      -0.00000000
H        1.72897500      -3.00829196       0.90033020
H        1.72897500      -3.00829196      -0.90033021
H        3.81804961      -0.58953949      -0.00000000
H        4.76705755       1.68010393      -0.00000000
H        3.26718471       3.70035740      -0.00000000
H        0.80201899       3.40299807      -0.00000000
28
Properties=species:S:1:pos:R:3 pbc="F F F"
C       -4.81412338      -0.44772360      -0.00000000
N       -3.50213342      -0.97839759      -0.00000002
C       -2.44661193      -0.12576950      -0.00000001
O       -2.71646575       1.20489641      -0.00000000
C       -1.05941487      -0.32812748      -0.00000001
C       -0.15452634      -1.43483457      -0.00000000
N        1.19012029      -1.20716636      -0.00000000
C        1.97457309      -2.42147629      -0.00000000
C        1.75034459       0.03178777      -0.00000000
C        3.12507138       0.26335843      -0.00000000
C        3.66718113       1.54253574      -0.00000000
C        2.82396390       2.68335990      -0.00000000
C        1.46702398       2.51438674      -0.00000000
C        0.86619018       1.20901876      -0.00000000
C       -0.50387703       0.98843555      -0.00000000
O       -1.46386011       1.96458465      -0.00000000
H       -5.53987175      -1.28869196       0.00000004
H       -5.03393358       0.15833886       0.89333496
H       -5.03393432       0.15833886      -0.89333490
H       -3.29312449      -1.94869162      -0.00000004
H       -0.46706785      -2.47468476      -0.00000000
H        3.05438465      -2.23955043      -0.00000000
H        1.72889212      -3.00787040       0.90010124
H        1.72889212      -3.00787040      -0.90010124
H        3.81753351      -0.58893868      -0.00000000
H        4.76622757       1.67959582      -0.00000000
H        3.26676794       3.69927178      -0.00000000
H        0.80177838       3.40188437      -0.00000000
28
Properties=species:S:1:pos:R:3 pbc="F F F"
C       -4.81405760      -0.44757388      -0.00000000
N       -3.50171596      -0.97824440      -0.00000002
C       -2.44547243      -0.12568986      -0.00000001
O       -2.71575212       1.20503028      -0.00000000
C       -1.05951124      -0.32837785      -0.00000001
C       -0.15447249      -1.43483368      -0.00000000
N        1.19008275      -1.20717012      -0.00000000
C        1.97456131      -2.42133063      -0.00000000
C        1.75031104       0.03181576      -0.00000000
C        3.12500132       0.26323301      -0.00000000
C        3.66727195       1.54268715      -0.00000000
C        2.82373374       2.68333793      -0.00000000
C        1.46684483       2.51436076      -0.00000000
C        0.86591772       1.20908158      -0.00000000
C       -0.50398563       0.98846780      -0.00000000
O       -1.46490691       1.96222886      -0.00000000
H       -5.53960519      -1.28777884       0.00000004
H       -5.03243686       0.15902365       0.89340995
H       -5.03243761       0.15902364      -0.89340988
H       -3.29457370      -1.94875691      -0.00000004
H       -0.46685073      -2.47445769      -0.00000000
H        3.05415547      -2.23893420      -0.00000000
H        1.72882515      -3.00742896       0.89980999
H        1.72882515      -3.00742896      -0.89980999
H        3.81705648      -0.58833267      -0.00000000
H        4.76537169       1.67910258      -0.00000000
H        3.26633693       3.69819096      -0.00000000
H        0.80148293       3.40075468      -0.00000000
28
Properties=species:S:1:pos:R:3 pbc="F F F"
C       -4.81399126      -0.44741140      -0.00000000
N       -3.50127013      -0.97811617      -0.00000002
C       -2.44431256      -0.12557381      -0.00000001
O       -2.71502509       1.20513628      -0.00000000
C       -1.05962063      -0.32863208      -0.00000001
C       -0.15443039      -1.43483434      -0.00000000
N        1.19003232      -1.20716931      -0.00000000
C        1.97454282      -2.42116435      -0.00000000
C        1.75027705       0.03183654      -0.00000000
C        3.12492701       0.26310156      -0.00000000
C        3.66732500       1.54280728      -0.00000000
C        2.82346985       2.68330934      -0.00000000
C        1.46663449       2.51433336      -0.00000000
C        0.86562008       1.20914062      -0.00000000
C       -0.50410863       0.98849689      -0.00000000
O       -1.46591361       1.95972501      -0.00000000
H       -5.53924349      -1.28667203       0.00000004
H       -5.03091641       0.15971910       0.89339703
H       -5.03091716       0.15971910      -0.89339697
H       -3.29601666      -1.94882177      -0.00000004
H       -0.46666484      -2.47423901      -0.00000000
H        3.05389216      -2.23830013      -0.00000000
H        1.72877985      -3.00699887       0.89948158
H        1.72877985      -3.00699887      -0.89948159
H        3.81661734      -0.58773387      -0.00000000
H        4.76449528       1.67862159      -0.00000000
H        3.26589381       3.69711180      -0.00000000
H        0.80114395       3.39960754      -0.00000000
28
Properties=species:S:1:pos:R:3 pbc="F F F"
C       -4.81391668      -0.44722976      -0.00000000
N       -3.50078531      -0.97801083      -0.00000002
C       -2.44313938      -0.12542076      -0.00000001
O       -2.71429128       1.20521421      -0.00000000
C       -1.05974243      -0.32888925      -0.00000001
C       -0.15439797      -1.43483610      -0.00000000
N        1.18997247      -1.20717763      -0.00000000
C        1.97451882      -2.42097738      -0.00000000
C        1.75024339       0.03185072      -0.00000000
C        3.12484912       0.26296541      -0.00000000
C        3.66734348       1.54289888      -0.00000000
C        2.82317553       2.68327487      -0.00000000
C        1.46639596       2.51430451      -0.00000000
C        0.86530267       1.20919701      -0.00000000
C       -0.50424343       0.98852519      -0.00000000
O       -1.46684643       1.95710605      -0.00000000
H       -5.53887083      -1.28544254       0.00000004
H       -5.02935165       0.16044561       0.89334786
H       -5.02935242       0.16044560      -0.89334780
H       -3.29747227      -1.94890456      -0.00000004
H       -0.46650961      -2.47402726      -0.00000000
H        3.05360458      -2.23764055      -0.00000000
H        1.72874863      -3.00658262       0.89913180
H        1.72874863      -3.00658262      -0.89913181
H        3.81621262      -0.58714453      -0.00000000
H        4.76359984       1.67815584      -0.00000000
H        3.26543850       3.69603692      -0.00000000
H        0.80076542       3.39844557      -0.00000000
28
Properties=species:S:1:pos:R:3 pbc="F F F"
C       -4.81383340      -0.44702652      -0.00000000
N       -3.50025741      -0.97792087      -0.00000002
C       -2.44195894      -0.12523639      -0.00000001
O       -2.71355648       1.20526671      -0.00000000
C       -1.05987703      -0.32915087      -0.00000001
C       -0.15437390      -1.43484068      -0.00000000
N        1.18990312      -1.20719405      -0.00000000
C        1.97448951      -2.42077189      -0.00000000
C        1.75021025       0.03185726      -0.00000000
C        3.12476740       0.26282400      -0.00000000
C        3.66733058       1.54296307      -0.00000000
C        2.82285224       2.68323398      -0.00000000
C        1.46613172       2.51427320      -0.00000000
C        0.86496951       1.20925002      -0.00000000
C       -0.50438868       0.98855281      -0.00000000
O       -1.46770274       1.95441470      -0.00000000
H       -5.53849549      -1.28413117       0.00000004
H       -5.02773475       0.16120513       0.89327728
H       -5.02773553       0.16120512      -0.89327723
H       -3.29895005      -1.94901183      -0.00000004
H       -0.46638564      -2.47382256      -0.00000000
H        3.05329628      -2.23695202      -0.00000000
H        1.72872713      -3.00618087       0.89876632
H        1.72872713      -3.00618087      -0.89876632
H        3.81583901      -0.58656748      -0.00000000
H        4.76268609       1.67770608      -0.00000000
H        3.26497057       3.69496681      -0.00000000
H        0.80034952       3.39726919      -0.00000000
28
Properties=species:S:1:pos:R:3 pbc="F F F"
C       -4.81374106      -0.44680044      -0.00000000
N       -3.49968812      -0.97783810      -0.00000002
C       -2.44077319      -0.12502813      -0.00000001
O       -2.71282230       1.20529854      -0.00000000
C       -1.06002413      -0.32941908      -0.00000000
C       -0.15435692      -1.43484964      -0.00000000
N        1.18982489      -1.20721794      -0.00000000
C        1.97445553      -2.42055034      -0.00000000
C        1.75017846       0.03185504      -0.00000000
C        3.12468205       0.26267636      -0.00000000
C        3.66729215       1.54300040      -0.00000000
C        2.82250180       2.68318602      -0.00000000
C        1.46584465       2.51423843      -0.00000000
C        0.86462451       1.20929855      -0.00000000
C       -0.50454251       0.98857895      -0.00000000
O       -1.46849788       1.95167987      -0.00000000
H       -5.53811786      -1.28275517       0.00000004
H       -5.02606343       0.16199638       0.89319123
H       -5.02606422       0.16199638      -0.89319117
H       -3.30045431      -1.94914633      -0.00000003
H       -0.46629291      -2.47362499      -0.00000000
H        3.05296929      -2.23623254      -0.00000000
H        1.72871363      -3.00579446       0.89838759
H        1.72871363      -3.00579446      -0.89838759
H        3.81549411      -0.58600529      -0.00000000
H        4.76175511       1.67727239      -0.00000000
H        3.26449032       3.69390132      -0.00000000
H        0.79989872       3.39607827      -0.00000000
28
Properties=species:S:1:pos:R:3 pbc="F F F"
C       -4.81364123      -0.44655491      -0.00000000
N       -3.49909245      -0.97775764      -0.00000002
C       -2.43960166      -0.12480633      -0.00000001
O       -2.71209992       1.20531489      -0.00000000
C       -1.06018036      -0.32969091      -0.00000000
C       -0.15434662      -1.43486325      -0.00000000
N        1.18974018      -1.20724776      -0.00000000
C        1.97441823      -2.42031889      -0.00000000
C        1.75014921       0.03184387      -0.00000000
C        3.12459491       0.26252453      -0.00000000
C        3.66723583       1.54301205      -0.00000000
C        2.82213281       2.68313183      -0.00000000
C        1.46554303       2.51420040      -0.00000000
C        0.86427707       1.20934126      -0.00000000
C       -0.50470017       0.98860224      -0.00000000
O       -1.46923777       1.94896147      -0.00000000
H       -5.53774467      -1.28134886       0.00000004
H       -5.02436733       0.16280358       0.89309441
H       -5.02436812       0.16280357      -0.89309436
H       -3.30196065      -1.94930550      -0.00000003
H       -0.46623164      -2.47343695      -0.00000000
H        3.05263095      -2.23549325      -0.00000000
H        1.72870740      -3.00542995       0.89800364
H        1.72870740      -3.00542995      -0.89800364
H        3.81518086      -0.58546873      -0.00000000
H        4.76082408       1.67686171      -0.00000000
H        3.26400657       3.69285818      -0.00000000
H        0.79942405       3.39489330      -0.00000000
28
Properties=species:S:1:pos:R:3 pbc="F F F"
C       -4.81353073      -0.44628004      -0.00000000
N       -3.49845456      -0.97767239      -0.00000002
C       -2.43840389      -0.12456783      -0.00000001
O       -2.71136305       1.20532082      -0.00000000
C       -1.06035073      -0.32997718      -0.00000000
C       -0.15434176      -1.43488270      -0.00000000
N        1.18964691      -1.20728358      -0.00000000
C        1.97437707      -2.42007142      -0.00000000
C        1.75012219       0.03182308      -0.00000000
C        3.12450356       0.26236290      -0.00000000
C        3.66716309       1.54299960      -0.00000000
C        2.82173457       2.68306977      -0.00000000
C        1.46521905       2.51415786      -0.00000000
C        0.86391801       1.20937923      -0.00000000
C       -0.50486511       0.98862231      -0.00000000
O       -1.46996135       1.94617133      -0.00000000
H       -5.53736465      -1.27987035       0.00000004
H       -5.02258954       0.16365315       0.89298503
H       -5.02259033       0.16365315      -0.89298497
H       -3.30352098      -1.94949496      -0.00000003
H       -0.46619992      -2.47325121      -0.00000000
H        3.05227063      -2.23470659      -0.00000000
H        1.72870815      -3.00507608       0.89760222
H        1.72870815      -3.00507608      -0.89760222
H        3.81488769      -0.58494140      -0.00000000
H        4.75986274       1.67646104      -0.00000000
H        3.26350350       3.69180285      -0.00000000
H        0.79891132       3.39367472      -0.00000000
28
Properties=species:S:1:pos:R:3 pbc="F F F"
C       -4.81341121      -0.44597874      -0.00000000
N       -3.49778875      -0.97758015      -0.00000002
C       -2.43719915      -0.12431957      -0.00000001
O       -2.71062196       1.20531960      -0.00000000
C       -1.06053196      -0.33027446      -0.00000000
C       -0.15434101      -1.43490835      -0.00000000
N        1.18954721      -1.20732366      -0.00000000
C        1.97433306      -2.41981334      -0.00000000
C        1.75009802       0.03179289      -0.00000000
C        3.12440964       0.26219376      -0.00000000
C        3.66707661       1.54296448      -0.00000000
C        2.82131503       2.68300091      -0.00000000
C        1.46488018       2.51411140      -0.00000000
C        0.86355523       1.20941149      -0.00000000
C       -0.50503243       0.98863727      -0.00000000
O       -1.47066655       1.94335557      -0.00000000
H       -5.53698524      -1.27834856       0.00000004
H       -5.02076026       0.16453020       0.89286559
H       -5.02076107       0.16453019      -0.89286554
H       -3.30510904      -1.94971120      -0.00000003
H       -0.46619834      -2.47306925      -0.00000000
H        3.05189442      -2.23388260      -0.00000000
H        1.72871566      -3.00473951       0.89719053
H        1.72871566      -3.00473951      -0.89719054
H        3.81461812      -0.58443346      -0.00000000
H        4.75888784       1.67607790      -0.00000000
H        3.26298958       3.69075344      -0.00000000
H        0.79837071       3.39244325      -0.00000000
28
Properties=species:S:1:pos:R:3 pbc="F F F"
C       -4.81328302      -0.44564959      -0.00000000
N       -3.49709915      -0.97747798      -0.00000002
C       -2.43598762      -0.12406373      -0.00000001
O       -2.70987571       1.20531384      -0.00000000
C       -1.06072354      -0.33058382      -0.00000000
C       -0.15434286      -1.43494083      -0.00000000
N        1.18944178      -1.20736697      -0.00000000
C        1.97428663      -2.41954631      -0.00000000
C        1.75007679       0.03175332      -0.00000000
C        3.12431355       0.26201680      -0.00000000
C        3.66697790       1.54290849      -0.00000000
C        2.82087594       2.68292558      -0.00000000
C        1.46452878       2.51406127      -0.00000000
C        0.86319025       1.20943793      -0.00000000
C       -0.50519972       0.98864553      -0.00000000
O       -1.47136027       1.94051370      -0.00000000
H       -5.53660835      -1.27678803       0.00000003
H       -5.01888175       0.16543366       0.89273671
H       -5.01888256       0.16543365      -0.89273667
H       -3.30672388      -1.94995374      -0.00000003
H       -0.46622642      -2.47288953      -0.00000000
H        3.05150262      -2.23301882      -0.00000000
H        1.72872971      -3.00442104       0.89676928
H        1.72872971      -3.00442104      -0.89676928
H        3.81437084      -0.58394594      -0.00000000
H        4.75790082       1.67571298      -0.00000000
H        3.26246526       3.68971065      -0.00000000
H        0.79780427       3.39119997      -0.00000000
28
Properties=species:S:1:pos:R:3 pbc="F F F"
C       -4.81314532      -0.44528924      -0.00000000
N       -3.49638949      -0.97736327      -0.00000001
C       -2.43477015      -0.12380180      -0.00000001
O       -2.70912449       1.20530524      -0.00000000
C       -1.06092499      -0.33090636      -0.00000000
C       -0.15434592      -1.43498078      -0.00000000
N        1.18933118      -1.20741270      -0.00000000
C        1.97423801      -2.41927202      -0.00000000
C        1.75005849       0.03170424      -0.00000000
C        3.12421563       0.26183154      -0.00000000
C        3.66686817       1.54283325      -0.00000000
C        2.82041878       2.68284389      -0.00000000
C        1.46416668       2.51400751      -0.00000000
C        0.86282409       1.20945834      -0.00000000
C       -0.50536438       0.98864527      -0.00000000
O       -1.47204625       1.93764642      -0.00000000
H       -5.53623616      -1.27519341       0.00000003
H       -5.01695658       0.16636231       0.89259880
H       -5.01695741       0.16636230      -0.89259876
H       -3.30836396      -1.95022209      -0.00000003
H       -0.46628358      -2.47271060      -0.00000000
H        3.05109521      -2.23211273      -0.00000000
H        1.72874993      -3.00412158       0.89633909
H        1.72874993      -3.00412158      -0.89633909
H        3.81414465      -0.58347995      -0.00000000
H        4.75690306       1.67536683      -0.00000000
H        3.26193088       3.68867496      -0.00000000
H        0.79721399       3.38994601      -0.00000000
28
Properties=species:S:1:pos:R:3 pbc="F F F"
C       -4.81299631      -0.44489249      -0.00000000
N       -3.49566327      -0.97723368      -0.00000001
C       -2.43354823      -0.12353472      -0.00000001
O       -2.70836946       1.20529482      -0.00000000
C       -1.06113584      -0.33124325      -0.00000000
C       -0.15434905      -1.43502877      -0.00000000
N        1.18921597      -1.20746022      -0.00000000
C        1.97418735      -2.41899219      -0.00000000
C        1.75004302       0.03164549      -0.00000000
C        3.12411625       0.26163737      -0.00000000
C        3.66674854       1.54274027      -0.00000000
C        2.81994458       2.68275577      -0.00000000
C        1.46379548       2.51395009      -0.00000000
C        0.86245731       1.20947244      -0.00000000
C       -0.50552367       0.98863471      -0.00000000
O       -1.47272596       1.93475547      -0.00000000
H       -5.53587109      -1.27356981       0.00000003
H       -5.01498766       0.16731466       0.89245219
H       -5.01498849       0.16731465      -0.89245215
H       -3.31002712      -1.95051576      -0.00000003
H       -0.46636919      -2.47253121      -0.00000000
H        3.05067190      -2.23116176      -0.00000000
H        1.72877588      -3.00384209       0.89590056
H        1.72877588      -3.00384209      -0.89590056
H        3.81393846      -0.58303663      -0.00000000
H        4.75589603       1.67503980      -0.00000000
H        3.26138677       3.68764661      -0.00000000
H        0.79660192       3.38868251      -0.00000000
28
Properties=species:S:1:pos:R:3 pbc="F F F"
C       -4.81283627      -0.44445807      -0.00000000
N       -3.49492342      -0.97708678      -0.00000001
C       -2.43232357      -0.12326261      -0.00000001
O       -2.70761204       1.20528320      -0.00000000
C       -1.06135543      -0.33159545      -0.00000000
C       -0.15435108      -1.43508488      -0.00000000
N        1.18909672      -1.20750880      -0.00000000
C        1.97413477      -2.41870809      -0.00000000
C        1.75003027       0.03157712      -0.00000000
C        3.12401578       0.26143396      -0.00000000
C        3.66661991       1.54263118      -0.00000000
C        2.81945450       2.68266117      -0.00000000
C        1.46341669       2.51388908      -0.00000000
C        0.86209019       1.20948020      -0.00000000
C       -0.50567469       0.98861253      -0.00000000
O       -1.47339914       1.93184373      -0.00000000
H       -5.53551520      -1.27192236       0.00000003
H       -5.01297776       0.16828907       0.89229706
H       -5.01297859       0.16828907      -0.89229702
H       -3.31171010      -1.95083386      -0.00000003
H       -0.46648243      -2.47234975      -0.00000000
H        3.05023208      -2.23016284      -0.00000000
H        1.72880707      -3.00358303       0.89545414
H        1.72880707      -3.00358303      -0.89545414
H        3.81375117      -0.58261670      -0.00000000
H        4.75488116       1.67473229      -0.00000000
H        3.26083329       3.68662576      -0.00000000
H        0.79596907       3.38740792      -0.00000000
28
Properties=species:S:1:pos:R:3 pbc="F F F"
C       -4.81266656      -0.44398636      -0.00000000
N       -3.49417302      -0.97692037      -0.00000001
C       -2.43109858      -0.12298516      -0.00000001
O       -2.70685408       1.20527067      -0.00000000
C       -1.06158310      -0.33196385      -0.00000000
C       -0.15435070      -1.43514925      -0.00000000
N        1.18897414      -1.20755784      -0.00000000
C        1.97408052      -2.41842105      -0.00000000
C        1.75002040       0.03149917      -0.00000000
C        3.12391489       0.26122105      -0.00000000
C        3.66648339       1.54250772      -0.00000000
C        2.81895004       2.68256026      -0.00000000
C        1.46303176       2.51382478      -0.00000000
C        0.86172273       1.20948178      -0.00000000
C       -0.50581463       0.98857796      -0.00000000
O       -1.47406461       1.92891542      -0.00000000
H       -5.53517103      -1.27025670       0.00000003
H       -5.01093038       0.16928354       0.89213366
H       -5.01093123       0.16928353      -0.89213362
H       -3.31340908      -1.95117556      -0.00000002
H       -0.46662257      -2.47216484      -0.00000000
H        3.04977512      -2.22911302      -0.00000000
H        1.72884313      -3.00334496       0.89500031
H        1.72884313      -3.00334496      -0.89500031
H        3.81358206      -0.58222073      -0.00000000
H        4.75386040       1.67444472      -0.00000000
H        3.26027118       3.68561282      -0.00000000
H        0.79531665       3.38612125      -0.00000000
28
Properties=species:S:1:pos:R:3 pbc="F F F"
C       -4.81248847      -0.44347839      -0.00000000
N       -3.49341491      -0.97673245      -0.00000001
C       -2.42987560      -0.12270182      -0.00000001
O       -2.70609733       1.20525702      -0.00000000
C       -1.06181817      -0.33234939      -0.00000000
C       -0.15434658      -1.43522211      -0.00000000
N        1.18884881      -1.20760690      -0.00000000
C        1.97402466      -2.41813238      -0.00000000
C        1.75001357       0.03141146      -0.00000000
C        3.12381417       0.26099818      -0.00000000
C        3.66633985       1.54237133      -0.00000000
C        2.81843251       2.68245297      -0.00000000
C        1.46264182       2.51375728      -0.00000000
C        0.86135455       1.20947719      -0.00000000
C       -0.50594092       0.98853064      -0.00000000
O       -1.47472063       1.92597647      -0.00000000
H       -5.53484104      -1.26857906       0.00000003
H       -5.00884899       0.17029571       0.89196219
H       -5.00884984       0.17029570      -0.89196215
H       -3.31511947      -1.95154002      -0.00000002
H       -0.46678895      -2.47197523      -0.00000000
H        3.04929996      -2.22800941      -0.00000000
H        1.72888351      -3.00312836       0.89453959
H        1.72888351      -3.00312836      -0.89453959
H        3.81343028      -0.58184923      -0.00000000
H        4.75283553       1.67417722      -0.00000000
H        3.25970109       3.68460789      -0.00000000
H        0.79464708       3.38482405      -0.00000000
28
Properties=species:S:1:pos:R:3 pbc="F F F"
C       -4.81230319      -0.44293539      -0.00000000
N       -3.49265175      -0.97652126      -0.00000001
C       -2.42865703      -0.12241181      -0.00000001
O       -2.70534347       1.20524170      -0.00000000
C       -1.06205991      -0.33275303      -0.00000000
C       -0.15433734      -1.43530379      -0.00000000
N        1.18872131      -1.20765568      -0.00000000
C        1.97396715      -2.41784335      -0.00000000
C        1.75001000       0.03131367      -0.00000000
C        3.12371424       0.26076480      -0.00000000
C        3.66619002       1.54222327      -0.00000000
C        2.81790304       2.68233912      -0.00000000
C        1.46224764       2.51368659      -0.00000000
C        0.86098514       1.20946639      -0.00000000
C       -0.50605129       0.98847067      -0.00000000
O       -1.47536500       1.92303458      -0.00000000
H       -5.53452773      -1.26689587       0.00000003
H       -5.00673697       0.17132319       0.89178282
H       -5.00673783       0.17132319      -0.89178278
H       -3.31683636      -1.95192636      -0.00000002
H       -0.46698090      -2.47178018      -0.00000000
H        3.04880526      -2.22684936      -0.00000000
H        1.72892751      -3.00293365       0.89407258
H        1.72892751      -3.00293365      -0.89407258
H        3.81329504      -0.58150252      -0.00000000
H        4.75180846       1.67392979      -0.00000000
H        3.25912367       3.68361114      -0.00000000
H        0.79396277       3.38351782      -0.00000000
28
Properties=species:S:1:pos:R:3 pbc="F F F"
C       -4.81211188      -0.44235862      -0.00000000
N       -3.49188608      -0.97628542      -0.00000001
C       -2.42744507      -0.12211430      -0.00000001
O       -2.70459392       1.20522403      -0.00000000
C       -1.06230751      -0.33317577      -0.00000000
C       -0.15432151      -1.43539467      -0.00000000
N        1.18859221      -1.20770394      -0.00000000
C        1.97390793      -2.41755513      -0.00000000
C        1.75000998       0.03120538      -0.00000000
C        3.12361578       0.26052026      -0.00000000
C        3.66603459       1.54206467      -0.00000000
C        2.81736264       2.68221849      -0.00000000
C        1.46184971       2.51361264      -0.00000000
C        0.86061389       1.20944931      -0.00000000
C       -0.50614368       0.98839845      -0.00000000
O       -1.47599474       1.92009785      -0.00000000
H       -5.53423354      -1.26521350       0.00000002
H       -5.00459792       0.17236367       0.89159575
H       -5.00459879       0.17236367      -0.89159571
H       -3.31855510      -1.95233358      -0.00000002
H       -0.46719761      -2.47157944      -0.00000000
H        3.04828943      -2.22563045      -0.00000000
H        1.72897430      -3.00276115       0.89359999
H        1.72897430      -3.00276115      -0.89359999
H        3.81317563      -0.58118062      -0.00000000
H        4.75078117       1.67370247      -0.00000000
H        3.25853963       3.68262271      -0.00000000
H        0.79326615       3.38220414      -0.00000000
28
Properties=species:S:1:pos:R:3 pbc="F F F"
C       -4.81191554      -0.44174929      -0.00000000
N       -3.49112023      -0.97602388      -0.00000001
C       -2.42624104      -0.12180818      -0.00000001
O       -2.70384954       1.20520322      -0.00000000
C       -1.06256006      -0.33361852      -0.00000000
C       -0.15429746      -1.43549509      -0.00000000
N        1.18846208      -1.20775149      -0.00000000
C        1.97384689      -2.41726850      -0.00000000
C        1.75001384       0.03108614      -0.00000000
C        3.12351952       0.26026393      -0.00000000
C        3.66587405       1.54189650      -0.00000000
C        2.81681201       2.68209076      -0.00000000
C        1.46144814       2.51353529      -0.00000000
C        0.86024015       1.20942579      -0.00000000
C       -0.50621595       0.98831447      -0.00000000
O       -1.47660597       1.91717344      -0.00000000
H       -5.53396053      -1.26353784       0.00000002
H       -5.00243600       0.17341497       0.89140134
H       -5.00243687       0.17341497      -0.89140130
H       -3.32027151      -1.95276043      -0.00000002
H       -0.46743808      -2.47137303      -0.00000000
H        3.04775041      -2.22435038       0.00000000
H        1.72902290      -3.00261089       0.89312253
H        1.72902290      -3.00261089      -0.89312253
H        3.81307129      -0.58088314      -0.00000000
H        4.74975548       1.67349523      -0.00000000
H        3.25794945       3.68164233      -0.00000000
H        0.79255968       3.38088454      -0.00000000
28
Properties=species:S:1:pos:R:3 pbc="F F F"
C       -4.81171531      -0.44110866      -0.00000000
N       -3.49035643      -0.97573615      -0.00000001
C       -2.42504555      -0.12149226      -0.00000001
O       -2.70311067       1.20517849      -0.00000000
C       -1.06281660      -0.33408225      -0.00000000
C       -0.15426354      -1.43560539      -0.00000000
N        1.18833149      -1.20779818      -0.00000000
C        1.97378395      -2.41698405      -0.00000000
C        1.75002195       0.03095545      -0.00000000
C        3.12342631       0.25999516      -0.00000000
C        3.66570895       1.54171979      -0.00000000
C        2.81625172       2.68195562      -0.00000000
C        1.46104278       2.51345443      -0.00000000
C        0.85986322       1.20939572      -0.00000000
C       -0.50626602       0.98821953      -0.00000000
O       -1.47719461       1.91426812      -0.00000000
H       -5.53371065      -1.26187454       0.00000002
H       -5.00025581       0.17447492       0.89120007
H       -5.00025669       0.17447491      -0.89120005
H       -3.32198187      -1.95320544      -0.00000002
H       -0.46770125      -2.47116122      -0.00000000
H        3.04718596      -2.22300744       0.00000000
H        1.72907228      -3.00248283       0.89264092
H        1.72907228      -3.00248283      -0.89264092
H        3.81298133      -0.58060928      -0.00000000
H        4.74873323       1.67330814      -0.00000000
H        3.25735364       3.68066955      -0.00000000
H        0.79184591       3.37956069      -0.00000000
28
Properties=species:S:1:pos:R:3 pbc="F F F"
C       -4.81151252      -0.44043805      -0.00000000
N       -3.48959757      -0.97542272      -0.00000001
C       -2.42385949      -0.12116573      -0.00000001
O       -2.70237758       1.20514917      -0.00000000
C       -1.06307618      -0.33456773      -0.00000000
C       -0.15421825      -1.43572587      -0.00000000
N        1.18820105      -1.20784391      -0.00000000
C        1.97371914      -2.41670257      -0.00000000
C        1.75003469       0.03081294      -0.00000000
C        3.12333729       0.25971348      -0.00000000
C        3.66553995       1.54153553      -0.00000000
C        2.81568259       2.68181310      -0.00000000
C        1.46063345       2.51337026      -0.00000000
C        0.85948250       1.20935913      -0.00000000
C       -0.50629225       0.98811488      -0.00000000
O       -1.47775739       1.91138907      -0.00000000
H       -5.53348589      -1.26022941       0.00000002
H       -4.99806193       0.17554124       0.89099251
H       -4.99806282       0.17554123      -0.89099249
H       -3.32368263      -1.95366674      -0.00000002
H       -0.46798617      -2.47094458      -0.00000000
H        3.04659402      -2.22160097       0.00000000
H        1.72912160      -3.00237713       0.89215602
H        1.72912160      -3.00237713      -0.89215602
H        3.81290547      -0.58035791      -0.00000000
H        4.74771661       1.67314140      -0.00000000
H        3.25675299       3.67970409      -0.00000000
H        0.79112772       3.37823491      -0.00000000
28
Properties=species:S:1:pos:R:3 pbc="F F F"
C       -4.81130781      -0.43973882      -0.00000000
N       -3.48884507      -0.97508426      -0.00000001
C       -2.42268349      -0.12082808      -0.00000000
O       -2.70165008       1.20511445      -0.00000000
C       -1.06333732      -0.33507432      -0.00000000
C       -0.15416020      -1.43585650      -0.00000000
N        1.18807108      -1.20788838      -0.00000000
C        1.97365206      -2.41642554      -0.00000000
C        1.75005225       0.03065814      -0.00000000
C        3.12325317       0.25941850      -0.00000000
C        3.66536705       1.54134448      -0.00000000
C        2.81510522       2.68166301      -0.00000000
C        1.46021967       2.51328278      -0.00000000
C        0.85909732       1.20931585      -0.00000000
C       -0.50629336       0.98800192      -0.00000000
O       -1.47829178       1.90854276      -0.00000000
H       -5.53328719      -1.25860788       0.00000002
H       -4.99585819       0.17661161       0.89077920
H       -4.99585908       0.17661161      -0.89077917
H       -3.32536981      -1.95414173      -0.00000001
H       -0.46829189      -2.47072351      -0.00000000
H        3.04597204      -2.22013105       0.00000000
H        1.72916985      -3.00229354       0.89166856
H        1.72916985      -3.00229354      -0.89166857
H        3.81284291      -0.58012740      -0.00000000
H        4.74670706       1.67299501      -0.00000000
H        3.25614782       3.67874511      -0.00000000
H        0.79040793       3.37690931      -0.00000000
28
Properties=species:S:1:pos:R:3 pbc="F F F"
C       -4.81110224      -0.43901243      -0.00000000
N       -3.48810020      -0.97472182      -0.00000001
C       -2.42151833      -0.12047900      -0.00000000
O       -2.70092798       1.20507365      -0.00000000
C       -1.06359864      -0.33560102      -0.00000000
C       -0.15408816      -1.43599729      -0.00000000
N        1.18794198      -1.20793139      -0.00000000
C        1.97358255      -2.41615403      -0.00000000
C        1.75007499       0.03049047      -0.00000000
C        3.12317499       0.25910987      -0.00000000
C        3.66519087       1.54114804      -0.00000000
C        2.81452051       2.68150541      -0.00000000
C        1.45980095       2.51319220      -0.00000000
C        0.85870731       1.20926577      -0.00000000
C       -0.50626843       0.98788218      -0.00000000
O       -1.47879582       1.90573498      -0.00000000
H       -5.53311556      -1.25701502       0.00000002
H       -4.99364906       0.17768388       0.89056097
H       -4.99364996       0.17768388      -0.89056095
H       -3.32703985      -1.95462781      -0.00000001
H       -0.46861758      -2.47049877      -0.00000000
H        3.04531770      -2.21859885       0.00000000
H        1.72921628      -3.00223207       0.89117938
H        1.72921628      -3.00223207      -0.89117938
H        3.81279325      -0.57991578      -0.00000000
H        4.74570617       1.67286903      -0.00000000
H        3.25553864       3.67779185      -0.00000000
H        0.78968931       3.37558612      -0.00000000
28
Properties=species:S:1:pos:R:3 pbc="F F F"
C       -4.81089673      -0.43826033      -0.00000000
N       -3.48736420      -0.97433677      -0.00000001
C       -2.42036456      -0.12011821      -0.00000000
O       -2.70021065       1.20502624      -0.00000000
C       -1.06385915      -0.33614795      -0.00000000
C       -0.15400091      -1.43614805      -0.00000000
N        1.18781410      -1.20797263      -0.00000000
C        1.97351063      -2.41588821      -0.00000000
C        1.75010335       0.03030932      -0.00000000
C        3.12310387       0.25878739      -0.00000000
C        3.66501145       1.54094681      -0.00000000
C        2.81392924       2.68134038      -0.00000000
C        1.45937687       2.51309880      -0.00000000
C        0.85831249       1.20920875      -0.00000000
C       -0.50621658       0.98775713      -0.00000000
O       -1.47926802       1.90297122      -0.00000000
H       -5.53297148      -1.25545538       0.00000001
H       -4.99143907       0.17875616       0.89033889
H       -4.99143997       0.17875616      -0.89033887
H       -3.32868963      -1.95512235      -0.00000001
H       -0.46896249      -2.47027104      -0.00000000
H        3.04462874      -2.21700641       0.00000000
H        1.72926030      -3.00219258       0.89068920
H        1.72926030      -3.00219258      -0.89068920
H        3.81275625      -0.57972048      -0.00000000
H        4.74471535       1.67276354      -0.00000000
H        3.25492598       3.67684358      -0.00000000
H        0.78897450       3.37426748      -0.00000000
28
Properties=species:S:1:pos:R:3 pbc="F F F"
C       -4.81069236      -0.43748406      -0.00000000
N       -3.48663802      -0.97393081      -0.00000001
C       -2.41922303      -0.11974582      -0.00000000
O       -2.69949734       1.20497186      -0.00000000
C       -1.06411791      -0.33671498      -0.00000000
C       -0.15389746      -1.43630847      -0.00000000
N        1.18768779      -1.20801172      -0.00000000
C        1.97343632      -2.41562934      -0.00000000
C        1.75013779       0.03011405      -0.00000000
C        3.12304108       0.25845093      -0.00000000
C        3.66482884       1.54074146      -0.00000000
C        2.81333226       2.68116820      -0.00000000
C        1.45894717       2.51300313      -0.00000000
C        0.85791325       1.20914471      -0.00000000
C       -0.50613714       0.98762837      -0.00000000
O       -1.47970802       1.90025724      -0.00000000
H       -5.53285530      -1.25393318       0.00000001
H       -4.98923265       0.17982663       0.89011422
H       -4.98923356       0.17982663      -0.89011420
H       -3.33031617      -1.95562281      -0.00000001
H       -0.46932606      -2.47004111      -0.00000000
H        3.04390302      -2.21535677       0.00000000
H        1.72930147      -3.00217498       0.89019877
H        1.72930147      -3.00217498      -0.89019877
H        3.81273206      -0.57953835      -0.00000000
H        4.74373596       1.67267866      -0.00000000
H        3.25431045       3.67589977      -0.00000000
H        0.78826610       3.37295573      -0.00000000
28
Properties=species:S:1:pos:R:3 pbc="F F F"
C       -4.81048963      -0.43668530      -0.00000000
N       -3.48592184      -0.97350579      -0.00000001
C       -2.41809516      -0.11936249      -0.00000000
O       -2.69878690       1.20491007      -0.00000000
C       -1.06437387      -0.33730168      -0.00000000
C       -0.15377702      -1.43647814      -0.00000000
N        1.18756314      -1.20804809      -0.00000000
C        1.97335941      -2.41537812      -0.00000000
C        1.75017840       0.02990414      -0.00000000
C        3.12298766       0.25810027      -0.00000000
C        3.66464343       1.54053351      -0.00000000
C        2.81273025       2.68098893      -0.00000000
C        1.45851136       2.51290549      -0.00000000
C        0.85751011       1.20907340      -0.00000000
C       -0.50602965       0.98749741      -0.00000000
O       -1.48011622       1.89759825      -0.00000000
H       -5.53276662      -1.25245231       0.00000001
H       -4.98703338       0.18089345       0.88988833
H       -4.98703429       0.18089345      -0.88988832
H       -3.33191594      -1.95612642      -0.00000001
H       -0.46970796      -2.46980962      -0.00000000
H        3.04313806      -2.21365364       0.00000000
H        1.72933920      -3.00217887       0.88970865
H        1.72933920      -3.00217887      -0.88970865
H        3.81272082      -0.57936555      -0.00000000
H        4.74276858       1.67261424      -0.00000000
H        3.25369231       3.67495948      -0.00000000
H        0.78756654       3.37165278      -0.00000000
28
Properties=species:S:1:pos:R:3 pbc="F F F"
C       -4.81028946      -0.43586585      -0.00000000
N       -3.48521587      -0.97306382      -0.00000000
C       -2.41698087      -0.11896830      -0.00000000
O       -2.69807859       1.20484068      -0.00000000
C       -1.06462615      -0.33790729      -0.00000000
C       -0.15363914      -1.43665661      -0.00000000
N        1.18744029      -1.20808106      -0.00000000
C        1.97327988      -2.41513485      -0.00000000
C        1.75022495       0.02967954      -0.00000000
C        3.12294490       0.25773522      -0.00000000
C        3.66445578       1.54032450      -0.00000000
C        2.81212433       2.68080302      -0.00000000
C        1.45806905       2.51280649      -0.00000000
C        0.85710408       1.20899468      -0.00000000
C       -0.50589393       0.98736582      -0.00000000
O       -1.48049338       1.89499877      -0.00000000
H       -5.53270526      -1.25101652       0.00000001
H       -4.98484513       0.18195489       0.88966287
H       -4.98484606       0.18195489      -0.88966286
H       -3.33348607      -1.95663058      -0.00000001
H       -0.47010804      -2.46957745      -0.00000000
H        3.04233186      -2.21190246       0.00000000
H        1.72937296      -3.00220395       0.88921946
H        1.72937296      -3.00220395      -0.88921946
H        3.81272301      -0.57919882      -0.00000000
H        4.74181389       1.67257017      -0.00000000
H        3.25307191       3.67402215      -0.00000000
H        0.78687811       3.37036069      -0.00000000
28
Properties=species:S:1:pos:R:3 pbc="F F F"
C       -4.81009253      -0.43502747      -0.00000000
N       -3.48451992      -0.97260695      -0.00000000
C       -2.41588017      -0.11856330      -0.00000000
O       -2.69737154       1.20476355      -0.00000000
C       -1.06487387      -0.33853065      -0.00000000
C       -0.15348358      -1.43684333      -0.00000000
N        1.18731939      -1.20810974      -0.00000000
C        1.97319764      -2.41489971      -0.00000000
C        1.75027695       0.02944050      -0.00000000
C        3.12291414       0.25735560      -0.00000000
C        3.66426593       1.54011532      -0.00000000
C        2.81151557       2.68061092      -0.00000000
C        1.45762024       2.51270681      -0.00000000
C        0.85669616       1.20890844      -0.00000000
C       -0.50572990       0.98723508      -0.00000000
O       -1.48084028       1.89246221      -0.00000000
H       -5.53267063      -1.24962911       0.00000001
H       -4.98267130       0.18300948       0.88943964
H       -4.98267223       0.18300948      -0.88943963
H       -3.33502411      -1.95713265      -0.00000001
H       -0.47052621      -2.46934543      -0.00000000
H        3.04148220      -2.21010889       0.00000000
H        1.72940217      -3.00224973       0.88873171
H        1.72940217      -3.00224973      -0.88873171
H        3.81273913      -0.57903519      -0.00000000
H        4.74087232       1.67254623      -0.00000000
H        3.25244946       3.67308714      -0.00000000
H        0.78620278       3.36908111      -0.00000000
28
Properties=species:S:1:pos:R:3 pbc="F F F"
C       -4.80989963      -0.43417176      -0.00000000
N       -3.48383362      -0.97213723      -0.00000000
C       -2.41479282      -0.11814731      -0.00000000
O       -2.69666503       1.20467872      -0.00000000
C       -1.06511635      -0.33917053      -0.00000000
C       -0.15331035      -1.43703778      -0.00000000
N        1.18720064      -1.20813322      -0.00000000
C        1.97311272      -2.41467301      -0.00000000
C        1.75033381       0.02918747      -0.00000000
C        3.12289705       0.25696127      -0.00000000
C        3.66407331       1.53990581      -0.00000000
C        2.81090524       2.68041331      -0.00000000
C        1.45716526       2.51260734      -0.00000000
C        0.85628728       1.20881466      -0.00000000
C       -0.50553760       0.98710660      -0.00000000
O       -1.48115799       1.88999140      -0.00000000
H       -5.53266205      -1.24829301       0.00000001
H       -4.98051514       0.18405592       0.88922063
H       -4.98051608       0.18405592      -0.88922062
H       -3.33652835      -1.95763009      -0.00000000
H       -0.47096246      -2.46911459      -0.00000000
H        3.04058674      -2.20827831       0.00000000
H        1.72942635      -3.00231577       0.88824590
H        1.72942635      -3.00231577      -0.88824590
H        3.81276995      -0.57887191      -0.00000000
H        4.73994520       1.67254213      -0.00000000
H        3.25182523       3.67215411      -0.00000000
H        0.78554234       3.36781564      -0.00000000
28
Properties=species:S:1:pos:R:3 pbc="F F F"
C       -4.80971119      -0.43329998      -0.00000000
N       -3.48315616      -0.97165664      -0.00000000
C       -2.41371804      -0.11771999      -0.00000000
O       -2.69595839       1.20458610      -0.00000000
C       -1.06535275      -0.33982487      -0.00000000
C       -0.15311964      -1.43723944      -0.00000000
N        1.18708402      -1.20815052      -0.00000000
C        1.97302500      -2.41445503      -0.00000000
C        1.75039472       0.02892097      -0.00000000
C        3.12289521       0.25655199      -0.00000000
C        3.66387822       1.53969714      -0.00000000
C        2.81029445       2.68021070      -0.00000000
C        1.45670449       2.51250883      -0.00000000
C        0.85587832       1.20871320      -0.00000000
C       -0.50531729       0.98698150      -0.00000000
O       -1.48144779       1.88758834      -0.00000000
H       -5.53267830      -1.24701083       0.00000000
H       -4.97837938       0.18509299       0.88900785
H       -4.97838032       0.18509299      -0.88900784
H       -3.33799758      -1.95812037      -0.00000000
H       -0.47141691      -2.46888593      -0.00000000
H        3.03964304      -2.20641655       0.00000000
H        1.72944487      -3.00240160       0.88776242
H        1.72944487      -3.00240160      -0.88776242
H        3.81281615      -0.57870645      -0.00000000
H        4.73903298       1.67255723      -0.00000000
H        3.25119920       3.67122259      -0.00000000
H        0.78489822       3.36656522      -0.00000000
