25
Properties=species:S:1:pos:R:3 pbc="F F F"
C       -4.01122284       1.12188399      -0.51833302
C       -3.21409798       0.77851301       0.70084798
C       -2.36414194      -0.40288401       0.70353800
C       -0.98847902      -0.35807800       0.53405201
C       -0.30725300       0.88223600       0.37832201
C        1.05085301       0.92235398       0.20813701
C        1.80945396      -0.25143301       0.18790101
C        3.28569102      -0.19172700      -0.05248200
C        3.57201004      -0.08346300      -1.55135405
C        1.15806401      -1.47729301       0.33788699
C       -0.20065200      -1.54141402       0.51055503
H       -4.20177507       2.19618297      -0.55787998
H       -3.46902108       0.81618798      -1.41411304
H       -4.98345423       0.61184698      -0.51342398
H       -3.59570789       1.14442396       1.64745903
H       -2.83314300      -1.38239503       0.81163198
H       -0.90094900       1.79108298       0.39944500
H        1.55928302       1.87452102       0.08959600
H        3.70765305       0.68221998       0.44692299
H        3.76293302      -1.09328902       0.33471799
H        4.64541578      -0.03224600      -1.72559702
H        3.16788292      -0.95450699      -2.06647110
H        3.10241103       0.81594300      -1.94870806
H        1.74902403      -2.38826704       0.32018799
H       -0.70382702      -2.49503589       0.62996000
25
Properties=species:S:1:pos:R:3 pbc="F F F"
C       -3.98833446       1.06097272      -0.43450317
C       -3.21031594       0.76605685       0.80793874
C       -2.40879241      -0.43584725       0.78804599
C       -1.00660710      -0.39122788       0.62616581
C       -0.33224895       0.83669254       0.47158829
C        1.02435106       0.86738320       0.29624261
C        1.76425223      -0.28923657       0.28246009
C        3.25847852      -0.23139816       0.04069127
C        3.57711736      -0.12947837      -1.48261022
C        1.11793586      -1.50348966       0.42321752
C       -0.21035546      -1.57593055       0.59191228
H       -4.24436884       2.18061635      -0.48994206
H       -3.56161067       0.79545365      -1.39692924
H       -4.99466821       0.57176386      -0.40088605
H       -3.67142826       1.09657984       1.75992922
H       -2.92888395      -1.43446543       0.90802226
H       -1.02214576       1.75243018       0.51185669
H        1.55723257       1.85631282       0.19235439
H        3.67914792       0.64596827       0.54436985
H        3.73700147      -1.13349867       0.42774845
H        4.63812273      -0.08053522      -1.66425473
H        3.15021190      -0.99930860      -2.02376684
H        3.10210134       0.77147743      -1.92097626
H        1.74301674      -2.44181088       0.40775625
H       -0.76958125      -2.55643064       0.73490398
