25
Properties=species:S:1:pos:R:3 pbc="F F F"
C       -4.01044989       1.05540800      -0.48704600
C       -3.00381994       1.06754696       0.73809302
C       -2.38830400      -0.20690601       0.69143301
C       -0.94814903      -0.32408801       0.57375699
C       -0.27617100       0.89951998       0.40887699
C        1.08712304       0.92024499       0.20714299
C        1.81443095      -0.27285600       0.19219700
C        3.29773211      -0.21625599      -0.05852000
C        3.58566999      -0.09309000      -1.55945206
C        1.14235699      -1.49813700       0.34885401
C       -0.22893800      -1.53423595       0.52356797
H       -4.31275415       2.10204101      -0.56226301
H       -3.48498392       0.81702799      -1.41490996
H       -4.90804291       0.41760501      -0.43526199
H       -3.73555493       0.94285500       1.55548501
H       -2.92918992      -1.18242705       0.68763399
H       -0.93916798       1.76433003       0.46345201
H        1.60518599       1.86636806       0.06625900
H        3.70936799       0.65362102       0.46562001
H        3.78689098      -1.10455406       0.35051599
H        4.66018677      -0.03627000      -1.74925995
H        3.18151498      -0.95401102      -2.09976506
H        3.11549401       0.80709600      -1.96730697
H        1.72184598      -2.42015696       0.32458699
H       -0.74532300      -2.48531103       0.62910801
25
Properties=species:S:1:pos:R:3 pbc="F F F"
C       -3.98833446       1.06097272      -0.43450317
C       -3.21031594       0.76605685       0.80793874
C       -2.40879241      -0.43584725       0.78804599
C       -1.00660710      -0.39122788       0.62616581
C       -0.33224895       0.83669254       0.47158829
C        1.02435106       0.86738320       0.29624261
C        1.76425223      -0.28923657       0.28246009
C        3.25847852      -0.23139816       0.04069127
C        3.57711736      -0.12947837      -1.48261022
C        1.11793586      -1.50348966       0.42321752
C       -0.21035546      -1.57593055       0.59191228
H       -4.24436884       2.18061635      -0.48994206
H       -3.56161067       0.79545365      -1.39692924
H       -4.99466821       0.57176386      -0.40088605
H       -3.67142826       1.09657984       1.75992922
H       -2.92888395      -1.43446543       0.90802226
H       -1.02214576       1.75243018       0.51185669
H        1.55723257       1.85631282       0.19235439
H        3.67914792       0.64596827       0.54436985
H        3.73700147      -1.13349867       0.42774845
H        4.63812273      -0.08053522      -1.66425473
H        3.15021190      -0.99930860      -2.02376684
H        3.10210134       0.77147743      -1.92097626
H        1.74301674      -2.44181088       0.40775625
H       -0.76958125      -2.55643064       0.73490398
