25
Properties=species:S:1:pos:R:3 pbc="F F F"
C       -3.98833446       1.06097272      -0.43450317
C       -3.21031594       0.76605685       0.80793874
C       -2.40879241      -0.43584725       0.78804599
C       -1.00660710      -0.39122788       0.62616581
C       -0.33224895       0.83669254       0.47158829
C        1.02435106       0.86738320       0.29624261
C        1.76425223      -0.28923657       0.28246009
C        3.25847852      -0.23139816       0.04069127
C        3.57711736      -0.12947837      -1.48261022
C        1.11793586      -1.50348966       0.42321752
C       -0.21035546      -1.57593055       0.59191228
H       -4.24436884       2.18061635      -0.48994206
H       -3.56161067       0.79545365      -1.39692924
H       -4.99466821       0.57176386      -0.40088605
H       -3.67142826       1.09657984       1.75992922
H       -2.92888395      -1.43446543       0.90802226
H       -1.02214576       1.75243018       0.51185669
H        1.55723257       1.85631282       0.19235439
H        3.67914792       0.64596827       0.54436985
H        3.73700147      -1.13349867       0.42774845
H        4.63812273      -0.08053522      -1.66425473
H        3.15021190      -0.99930860      -2.02376684
H        3.10210134       0.77147743      -1.92097626
H        1.74301674      -2.44181088       0.40775625
H       -0.76958125      -2.55643064       0.73490398
25
Properties=species:S:1:pos:R:3 pbc="F F F"
C       -3.99047362       1.06351063      -0.43323784
C       -3.21064631       0.76354731       0.80584880
C       -2.40919650      -0.43506846       0.78801812
C       -1.00629949      -0.39115262       0.62642898
C       -0.33194519       0.83673452       0.47183535
C        1.02414394       0.86875167       0.29672183
C        1.76507988      -0.28905098       0.28272561
C        3.25915485      -0.23103474       0.03853363
C        3.57664907      -0.12913980      -1.48168611
C        1.11859885      -1.50463612       0.42360623
C       -0.21134982      -1.57621295       0.59226035
H       -4.24675043       2.18230729      -0.49119703
H       -3.56026652       0.79273309      -1.39795556
H       -4.99316174       0.57238490      -0.39923845
H       -3.67104405       1.09678163       1.75875661
H       -2.92880406      -1.43663333       0.90804208
H       -1.02209930       1.75438969       0.51288381
H        1.55747202       1.85679943       0.19244696
H        3.68045310       0.64651390       0.54393575
H        3.73777695      -1.13424625       0.42784600
H        4.63956297      -0.08037707      -1.66433303
H        3.14843360      -1.00029820      -2.02323341
H        3.10107653       0.77145805      -1.92031807
H        1.74310672      -2.44201323       0.40776869
H       -0.76964656      -2.55651734       0.73498041
25
Properties=species:S:1:pos:R:3 pbc="F F F"
C       -3.99261133       1.06584763      -0.43243407
C       -3.21260085       0.76021880       0.80293762
C       -2.40939776      -0.43459554       0.78811278
C       -1.00640590      -0.39090701       0.62670628
C       -0.33192793       0.83685564       0.47205484
C        1.02363386       0.87007154       0.29716687
C        1.76586475      -0.28884148       0.28281597
C        3.25995379      -0.23072977       0.03660590
C        3.57776329      -0.12905152      -1.48144931
C        1.11908365      -1.50572253       0.42414543
C       -0.21263824      -1.57629631       0.59269665
H       -4.24696646       2.18235067      -0.49111803
H       -3.55909937       0.79141504      -1.39787301
H       -4.99367041       0.57234130      -0.39937152
H       -3.67123154       1.09718872       1.75844945
H       -2.92905527      -1.43706998       0.90831265
H       -1.02193189       1.75557326       0.51343361
H        1.55765283       1.85724561       0.19257808
H        3.68289087       0.64682748       0.54359450
H        3.73906472      -1.13503842       0.42784988
H        4.64151831      -0.08036261      -1.66491657
H        3.14728346      -1.00063142      -2.02252219
H        3.10023076       0.77143653      -1.91950743
H        1.74326830      -2.44204901       0.40788915
H       -0.76973699      -2.55641739       0.73513010
25
Properties=species:S:1:pos:R:3 pbc="F F F"
C       -3.99506669       1.06798963      -0.43183520
C       -3.21493341       0.75717137       0.80047766
C       -2.40948166      -0.43427615       0.78829870
C       -1.00655096      -0.39064517       0.62703516
C       -0.33206182       0.83701673       0.47230627
C        1.02309724       0.87132285       0.29761541
C        1.76677777      -0.28869540       0.28283879
C        3.26089714      -0.23053804       0.03496709
C        3.57921992      -0.12909169      -1.48151148
C        1.11957930      -1.50672846       0.42478506
C       -0.21393445      -1.57631381       0.59322680
H       -4.24681901       2.18246508      -0.49078410
H       -3.55816436       0.79067725      -1.39756860
H       -4.99549254       0.57211668      -0.40098682
H       -3.67163977       1.09750475       1.75871900
H       -2.92935916      -1.43733725       0.90861824
H       -1.02133877       1.75652049       0.51377948
H        1.55785248       1.85759918       0.19273912
H        3.68542590       0.64693824       0.54339965
H        3.74053529      -1.13570147       0.42786684
H        4.64339056      -0.08046336      -1.66558057
H        3.14661513      -1.00072842      -2.02183492
H        3.09963994       0.77140831      -1.91867784
H        1.74343213      -2.44206548       0.40802978
H       -0.76972479      -2.55628472       0.73529669
25
Properties=species:S:1:pos:R:3 pbc="F F F"
C       -3.99759584       1.06980444      -0.43136087
C       -3.21705195       0.75468440       0.79864522
C       -2.40952681      -0.43404472       0.78850454
C       -1.00671180      -0.39040424       0.62738686
C       -0.33228434       0.83720706       0.47257718
C        1.02261177       0.87249113       0.29805077
C        1.76777526      -0.28861297       0.28282204
C        3.26187134      -0.23044264       0.03360394
C        3.58065961      -0.12917322      -1.48201535
C        1.12009392      -1.50765201       0.42544649
C       -0.21522470      -1.57633723       0.59382622
H       -4.24676170       2.18271367      -0.49052847
H       -3.55741416       0.79018055      -1.39725921
H       -4.99797552       0.57200391      -0.40328806
H       -3.67206905       1.09769911       1.75922930
H       -2.92956790      -1.43768183       0.90886923
H       -1.02047285       1.75735148       0.51401669
H        1.55803144       1.85781480       0.19290445
H        3.68776858       0.64694156       0.54326461
H        3.74199949      -1.13624994       0.42787160
H        4.64507021      -0.08063510      -1.66620060
H        3.14621813      -1.00076240      -2.02120311
H        3.09923285       0.77136222      -1.91789067
H        1.74354809      -2.44207057       0.40816491
H       -0.76960248      -2.55615822       0.73543926
25
Properties=species:S:1:pos:R:3 pbc="F F F"
C       -4.00001942       1.07128152      -0.43096677
C       -3.21880959       0.75270415       0.79733312
C       -2.40960596      -0.43385300       0.78867261
C       -1.00688710      -0.39019086       0.62773685
C       -0.33254676       0.83741396       0.47284500
C        1.02219894       0.87356728       0.29845771
C        1.76881062      -0.28858085       0.28277417
C        3.26279315      -0.23041192       0.03249798
C        3.58189853      -0.12926772      -1.48257669
C        1.12060256      -1.50848000       0.42608637
C       -0.21648182      -1.57637894       0.59446090
H       -4.24681085       2.18302333      -0.49039389
H       -3.55677940       0.78979464      -1.39698966
H       -5.00070548       0.57203948      -0.40578325
H       -3.67247011       1.09780213       1.75981719
H       -2.92967030      -1.43812023       0.90904195
H       -1.01947138       1.75810259       0.51416929
H        1.55818370       1.85789729       0.19305913
H        3.68985150       0.64689915       0.54315547
H        3.74336309      -1.13670179       0.42786179
H        4.64656498      -0.08084554      -1.66677253
H        3.14598167      -1.00078663      -2.02064175
H        3.09893900       0.77130353      -1.91715979
H        1.74361677      -2.44206273       0.40828111
H       -0.76938143      -2.55604694       0.73553190
25
Properties=species:S:1:pos:R:3 pbc="F F F"
C       -4.00227787       1.07247991      -0.43061810
C       -3.22022230       0.75112355       0.79638228
C       -2.40970542      -0.43368969       0.78880257
C       -1.00704414      -0.39001976       0.62806003
C       -0.33281772       0.83762430       0.47309537
C        1.02185464       0.87455303       0.29882767
C        1.76984552      -0.28858473       0.28270455
C        3.26362987      -0.23041995       0.03160957
C        3.58290373      -0.12936256      -1.48303151
C        1.12109577      -1.50921303       0.42667984
C       -0.21769125      -1.57643550       0.59509905
H       -4.24693142       2.18335053      -0.49036361
H       -3.55620439       0.78946647      -1.39677330
H       -5.00351205       0.57220414      -0.40823022
H       -3.67283030       1.09783695       1.76040822
H       -2.92969634      -1.43863625       0.90913476
H       -1.01840999       1.75879855       0.51425556
H        1.55831661       1.85786982       0.19319933
H        3.69168675       0.64684037       0.54306534
H        3.74459777      -1.13707428       0.42784657
H        4.64789832      -0.08107217      -1.66731248
H        3.14584514      -1.00081607      -2.02014017
H        3.09871397       0.77124021      -1.91647476
H        1.74364761      -2.44203755       0.40837360
H       -0.76909074      -2.55595642       0.73557750
25
Properties=species:S:1:pos:R:3 pbc="F F F"
C       -4.00438502       1.07346622      -0.43029718
C       -3.22136005       0.74983337       0.79566772
C       -2.40980908      -0.43354902       0.78890437
C       -1.00714101      -0.38989282       0.62834459
C       -0.33308214       0.83783009       0.47332525
C        1.02156701       0.87545546       0.29915941
C        1.77085332      -0.28861203       0.28262196
C        3.26438133      -0.23045017       0.03088544
C        3.58370422      -0.12945087      -1.48337735
C        1.12157071      -1.50986017       0.42721577
C       -0.21884544      -1.57650159       0.59572336
H       -4.24709186       2.18367715      -0.49041229
H       -3.55565085       0.78916604      -1.39661002
H       -5.00630826       0.57247820      -0.41051308
H       -3.67314817       1.09781980       1.76096900
H       -2.92966588      -1.43921918       0.90915078
H       -1.01733890       1.75945411       0.51429404
H        1.55843520       1.85775874       0.19332845
H        3.69331523       0.64677678       0.54299204
H        3.74571011      -1.13738422       0.42783141
H        4.64907930      -0.08129964      -1.66782136
H        3.14576969      -1.00085642      -2.01968394
H        3.09852715       0.77117983      -1.91582378
H        1.74365073      -2.44199371       0.40844480
H       -0.76874199      -2.55587997       0.73557781
25
Properties=species:S:1:pos:R:3 pbc="F F F"
C       -4.00637709       1.07429452      -0.42999597
C       -3.22230237       0.74874294       0.79510610
C       -2.40990859      -0.43342761       0.78898833
C       -1.00719095      -0.38977355       0.62861310
C       -0.33333664       0.83802823       0.47353794
C        1.02132289       0.87628339       0.29945556
C        1.77181722      -0.28865398       0.28253323
C        3.26506050      -0.23049307       0.03028117
C        3.58433455      -0.12952928      -1.48363023
C        1.12202505      -1.51043223       0.42769290
C       -0.21994071      -1.57657424       0.59632905
H       -4.24726870       2.18399337      -0.49051819
H       -3.55509661       0.78887363      -1.39649069
H       -5.00904685       0.57284327      -0.41259207
H       -3.67342942       1.09776365       1.76148980
H       -2.92958737      -1.43986231       0.90909770
H       -1.01629420       1.76007881       0.51430159
H        1.55854085       1.85758716       0.19345278
H        3.69477627       0.64671301       0.54293295
H        3.74671732      -1.13764582       0.42781680
H        4.64987356      -0.08153318      -1.66820451
H        3.14572866      -1.00090930      -2.01926470
H        3.09835920       0.77112715      -1.91520296
H        1.74363581      -2.44193358       0.40849995
H       -0.76833722      -2.55580565       0.73553236
25
Properties=species:S:1:pos:R:3 pbc="F F F"
C       -4.00828342       1.07500566      -0.42971376
C       -3.22311472       0.74778788       0.79464336
C       -2.40999945      -0.43332214       0.78906121
C       -1.00720400      -0.38964666       0.62887332
C       -0.33358133       0.83821887       0.47373704
C        1.02111415       0.87704643       0.29971857
C        1.77272877      -0.28870400       0.28244167
C        3.26568628      -0.23054225       0.02977058
C        3.58482520      -0.12959545      -1.48380570
C        1.12245998      -1.51093959       0.42811346
C       -0.22097285      -1.57665222       0.59691513
H       -4.24744252       2.18429362      -0.49066600
H       -3.55453004       0.78857896      -1.39640385
H       -5.01168801       0.57327888      -0.41446175
H       -3.67368185       1.09767940       1.76197116
H       -2.92946464      -1.44055707       0.90898506
H       -1.01529692       1.76068095       0.51428969
H        1.55863551       1.85737213       0.19357678
H        3.69609748       0.64665073       0.54288351
H        3.74763180      -1.13786575       0.42779960
H        4.65049267      -0.08175825      -1.66853709
H        3.14570635      -1.00097301      -2.01888016
H        3.09820042       0.77108347      -1.91461337
H        1.74361210      -2.44185875       0.40854318
H       -0.76789315      -2.55573098       0.73544972
25
Properties=species:S:1:pos:R:3 pbc="F F F"
C       -4.01012054       1.07562902      -0.42945232
C       -3.22384445       0.74692463       0.79424595
C       -2.41007971      -0.43322947       0.78912705
C       -1.00718272      -0.38950803       0.62912473
C       -0.33381897       0.83840381       0.47392595
C        1.02093566       0.87775364       0.29995088
C        1.77358415      -0.28875745       0.28234823
C        3.26629979      -0.23059463       0.02936694
C        3.58520143      -0.12964788      -1.48391744
C        1.12287657      -1.51139177       0.42848075
C       -0.22193923      -1.57673550       0.59748118
H       -4.24759868       2.18457478      -0.49084468
H       -3.55394808       0.78827876      -1.39633731
H       -5.01419519       0.57376043      -0.41613076
H       -3.67391255       1.09757409       1.76241685
H       -2.92930283      -1.44129146       0.90882457
H       -1.01435855       1.76126581       0.51426616
H        1.55872151       1.85712531       0.19370270
H        3.69729167       0.64658477       0.54283527
H        3.74845539      -1.13804032       0.42777296
H        4.65104604      -0.08196899      -1.66885809
H        3.14569300      -1.00104427      -2.01853075
H        3.09804847       0.77104902      -1.91406077
H        1.74358719      -2.44177029       0.40857826
H       -0.76742692      -2.55565573       0.73533858
25
Properties=species:S:1:pos:R:3 pbc="F F F"
C       -4.01189480       1.07618611      -0.42921220
C       -3.22452324       0.74612522       0.79389431
C       -2.41014907      -0.43314625       0.78918817
C       -1.00712841      -0.38935668       0.62936519
C       -0.33405309       0.83858516       0.47410764
C        1.02078607       0.87841274       0.30015418
C        1.77438287      -0.28881096       0.28225327
C        3.26695411      -0.23064956       0.02911038
C        3.58548425      -0.12968558      -1.48397811
C        1.12327697      -1.51179662       0.42879830
C       -0.22283913      -1.57682474       0.59802670
H       -4.24772828       2.18483560      -0.49104542
H       -3.55335512       0.78797366      -1.39628268
H       -5.01654031       0.57426543      -0.41761344
H       -3.67412682       1.09744995       1.76283249
H       -2.92911206      -1.44205180       0.90862883
H       -1.01348744       1.76183676       0.51423679
H        1.55880073       1.85685388       0.19383144
H        3.69835541       0.64649382       0.54276971
H        3.74918235      -1.13815773       0.42772795
H        4.65154803      -0.08216587      -1.66917373
H        3.14568316      -1.00112033      -2.01821758
H        3.09790434       0.77102330      -1.91355085
H        1.74356651      -2.44166903       0.40860827
H       -0.76695347      -2.55558160       0.73520704
25
Properties=species:S:1:pos:R:3 pbc="F F F"
C       -4.01360522       1.07669227      -0.42899298
C       -3.22517275       0.74537068       0.79357686
C       -2.41020957      -0.43306837       0.78924517
C       -1.00704243      -0.38919327       0.62959192
C       -0.33428648       0.83876440       0.47428414
C        1.02066631       0.87902964       0.30032972
C        1.77512583      -0.28886200       0.28215680
C        3.26758977      -0.23070136       0.02892965
C        3.58568848      -0.12970788      -1.48399758
C        1.12366314      -1.51215988       0.42906941
C       -0.22367391      -1.57692022       0.59855124
H       -4.24782788       2.18507626      -0.49126148
H       -3.55275962       0.78766631      -1.39623500
H       -5.01870984       0.57477572      -0.41892625
H       -3.67432647       1.09730586       1.76322284
H       -2.92890373      -1.44282636       0.90840875
H       -1.01268872       1.76239610       0.51420550
H        1.55887383       1.85656268       0.19396307
H        3.69928135       0.64635136       0.54266610
H        3.74981952      -1.13822127       0.42766460
H        4.65201288      -0.08235150      -1.66949484
H        3.14567160      -1.00119849      -2.01794081
H        3.09776848       0.77100575      -1.91308678
H        1.74355277      -2.44155501       0.40863581
H       -0.76648493      -2.55551043       0.73506158
25
Properties=species:S:1:pos:R:3 pbc="F F F"
C       -4.01524875       1.07715887      -0.42879340
C       -3.22580902       0.74464491       0.79328504
C       -2.41026570      -0.43299050       0.78929779
C       -1.00692632      -0.38901940       0.62980276
C       -0.33452092       0.83894196       0.47445745
C        1.02057949       0.87960859       0.30047933
C        1.77581613      -0.28890891       0.28205930
C        3.26817972      -0.23074683       0.02878950
C        3.58582282      -0.12971477      -1.48398264
C        1.12403711      -1.51248621       0.42929778
C       -0.22444621      -1.57702224       0.59905482
H       -4.24789838       2.18529822      -0.49148881
H       -3.55217286       0.78735976      -1.39619221
H       -5.02070438       0.57527896      -0.42008730
H       -3.67450861       1.09714127       1.76359198
H       -2.92868351      -1.44360622       0.90817220
H       -1.01196494       1.76294500       0.51417544
H        1.55894048       1.85625470       0.19409757
H        3.70009451       0.64617785       0.54253906
H        3.75038897      -1.13825332       0.42759385
H        4.65245201      -0.08252828      -1.66983176
H        3.14565348      -1.00127714      -2.01769992
H        3.09764103       0.77099597      -1.91267005
H        1.74354688      -2.44142786       0.40866337
H       -0.76602769      -2.55544198       0.73490605
25
Properties=species:S:1:pos:R:3 pbc="F F F"
C       -4.01682261       1.07759556      -0.42861224
C       -3.22644520       0.74393186       0.79300914
C       -2.41032411      -0.43290577       0.78934512
C       -1.00678259      -0.38883608       0.62999725
C       -0.33475731       0.83911707       0.47462951
C        1.02053055       0.88015158       0.30060524
C        1.77645859      -0.28895096       0.28196172
C        3.26871962      -0.23078502       0.02868403
C        3.58589123      -0.12970636      -1.48393831
C        1.12440118      -1.51277928       0.42948717
C       -0.22515921      -1.57713126       0.59953752
H       -4.24794384       2.18550374      -0.49172552
H       -3.55160488       0.78705660      -1.39615352
H       -5.02253655       0.57576803      -0.42111599
H       -3.67466908       1.09695776       1.76394316
H       -2.92844765      -1.44438426       0.90792384
H       -1.01131612       1.76348352       0.51414935
H        1.55899935       1.85593157       0.19423472
H        3.70083007       0.64600753       0.54241371
H        3.75091033      -1.13827109       0.42752419
H        4.65287360      -0.08269767      -1.67019281
H        3.14562496      -1.00135536      -2.01749449
H        3.09752280       0.77099347      -1.91230216
H        1.74354865      -2.44128725       0.40869322
H       -0.76558493      -2.55537518       0.73474321
25
Properties=species:S:1:pos:R:3 pbc="F F F"
C       -4.01832377       1.07801103      -0.42844886
C       -3.22708787       0.74321502       0.79273436
C       -2.41039249      -0.43280418       0.78938539
C       -1.00661272      -0.38864412       0.63017543
C       -0.33499527       0.83928730       0.47480209
C        1.02052467       0.88065715       0.30070997
C        1.77705918      -0.28898798       0.28186506
C        3.26920171      -0.23081592       0.02861470
C        3.58589009      -0.12968328      -1.48386693
C        1.12475777      -1.51304142       0.42964153
C       -0.22581711      -1.57724764       0.60000025
H       -4.24796937       2.18569537      -0.49197246
H       -3.55106365       0.78675934      -1.39611983
H       -5.02422431       0.57623977      -0.42203141
H       -3.67480396       1.09676057       1.76427854
H       -2.92818788      -1.44515362       0.90766681
H       -1.01073997       1.76401106       0.51412914
H        1.55904851       1.85559390       0.19437392
H        3.70151021       0.64585314       0.54230078
H        3.75139712      -1.13828230       0.42745966
H        4.65328279      -0.08286042      -1.67058568
H        3.14558230      -1.00143264      -2.01732509
H        3.09741438       0.77099768      -1.91198579
H        1.74355777      -2.44113259       0.40872678
H       -0.76515899      -2.55530964       0.73457547
25
Properties=species:S:1:pos:R:3 pbc="F F F"
C       -4.01974451       1.07841435      -0.42830454
C       -3.22772562       0.74248334       0.79243620
C       -2.41047742      -0.43267150       0.78941698
C       -1.00641704      -0.38844471       0.63033705
C       -0.33523371       0.83944862       0.47497674
C        1.02056535       0.88111936       0.30079642
C        1.77762377      -0.28902030       0.28177042
C        3.26960073      -0.23084045       0.02858758
C        3.58580212      -0.12964613      -1.48376625
C        1.12510949      -1.51327370       0.42976416
C       -0.22642507      -1.57737144       0.60044396
H       -4.24798171       2.18587548      -0.49223350
H       -3.55055793       0.78647070      -1.39609437
H       -5.02578754       0.57669380      -0.42285131
H       -3.67491015       1.09656117       1.76459971
H       -2.92789683      -1.44590908       0.90740386
H       -1.01023392       1.76452562       0.51411580
H        1.55908576       1.85524157       0.19451399
H        3.70214953       0.64571537       0.54220512
H        3.75185981      -1.13828936       0.42740332
H        4.65368272      -0.08301715      -1.67102018
H        3.14552254      -1.00150799      -2.01719531
H        3.09731637       0.77100770      -1.91172677
H        1.74357245      -2.44096339       0.40876481
H       -0.76475173      -2.55524474       0.73440452
25
Properties=species:S:1:pos:R:3 pbc="F F F"
C       -4.02106099       1.07881726      -0.42818428
C       -3.22832057       0.74174265       0.79207186
C       -2.41058198      -0.43248663       0.78943859
C       -1.00619562      -0.38823928       0.63048169
C       -0.33547127       0.83959515       0.47515451
C        1.02065350       0.88152829       0.30086754
C        1.77815731      -0.28904854       0.28167891
C        3.26983544      -0.23086049       0.02860289
C        3.58557712      -0.12959530      -1.48361996
C        1.12545795      -1.51347638       0.42985807
C       -0.22698992      -1.57750179       0.60086923
H       -4.24799077       2.18604570      -0.49251624
H       -3.55010087       0.78619644      -1.39608501
H       -5.02724801       0.57713216      -0.42359279
H       -3.67498211       1.09638756       1.76490825
H       -2.92756549      -1.44664919       0.90713761
H       -1.00979375       1.76502335       0.51410919
H        1.55910668       1.85487489       0.19465262
H        3.70276113       0.64558874       0.54213252
H        3.75230794      -1.13829121       0.42736055
H        4.65407393      -0.08316802      -1.67151164
H        3.14544326      -1.00157936      -2.01711399
H        3.09723027       0.77102174      -1.91153864
H        1.74358925      -2.44077955       0.40880708
H       -0.76436472      -2.55518006       0.73423136
25
Properties=species:S:1:pos:R:3 pbc="F F F"
C       -4.02218473       1.07924125      -0.42809878
C       -3.22882997       0.74104145       0.79157713
C       -2.41069791      -0.43221854       0.78944888
C       -1.00594802      -0.38802898       0.63060856
C       -0.33570691       0.83971971       0.47533575
C        1.02078798       0.88187261       0.30092607
C        1.77866378      -0.28907309       0.28159176
C        3.26969038      -0.23087180       0.02853333
C        3.58506679      -0.12953045      -1.48335043
C        1.12580446      -1.51364754       0.42992550
C       -0.22752084      -1.57763474       0.60127607
H       -4.24801276       2.18620769      -0.49283658
H       -3.54971717       0.78594992      -1.39611174
H       -5.02862760       0.57756032      -0.42427369
H       -3.67500091       1.09632423       1.76521071
H       -2.92717718      -1.44738109       0.90687019
H       -1.00941583       1.76549848       0.51410707
H        1.55910617       1.85449378       0.19478440
H        3.70336346       0.64546003       0.54209729
H        3.75275487      -1.13828071       0.42734545
H        4.65445419      -0.08331224      -1.67209096
H        3.14534493      -1.00164162      -2.01710282
H        3.09716113       0.77103765      -1.91145373
H        1.74360254      -2.44058124       0.40885124
H       -0.76399691      -2.55511506       0.73405542
25
Properties=species:S:1:pos:R:3 pbc="F F F"
C       -4.02267951       1.07973145      -0.42799796
C       -3.22926175       0.74050585       0.79092025
C       -2.41078787      -0.43183210       0.78944743
C       -1.00567145      -0.38781361       0.63071692
C       -0.33594005       0.83981471       0.47552141
C        1.02096982       0.88214155       0.30097466
C        1.77914826      -0.28909289       0.28151099
C        3.26931860      -0.23083998       0.02790711
C        3.58378695      -0.12946225      -1.48245387
C        1.12615312      -1.51378029       0.42996817
C       -0.22802839      -1.57775850       0.60166418
H       -4.24808228       2.18636695      -0.49323309
H       -3.54946433       0.78576514      -1.39622963
H       -5.02995046       0.57799103      -0.42491775
H       -3.67489721       1.09676105       1.76558783
H       -2.92668455      -1.44814171       0.90660566
H       -1.00910405       1.76594142       0.51410330
H        1.55908112       1.85409871       0.19489278
H        3.70400947       0.64529355       0.54215675
H        3.75324099      -1.13823204       0.42741474
H        4.65482554      -0.08344533      -1.67284247
H        3.14524017      -1.00168313      -2.01722464
H        3.09712841       0.77105665      -1.91156417
H        1.74360390      -2.44037006       0.40888988
H       -0.76363745      -2.55505222       0.73387387
25
Properties=species:S:1:pos:R:3 pbc="F F F"
C       -4.02113095       1.07972392      -0.42548657
C       -3.22968051       0.74027471       0.79018072
C       -2.41075823      -0.43129440       0.78945054
C       -1.00535321      -0.38759062       0.63082414
C       -0.33616755       0.83986526       0.47573302
C        1.02121561       0.88231743       0.30103490
C        1.77962929      -0.28910382       0.28146495
C        3.26944580      -0.23077600       0.02716328
C        3.58241538      -0.12961802      -1.47778999
C        1.12652478      -1.51384689       0.43000503
C       -0.22852425      -1.57782806       0.60205064
H       -4.24833864       2.18657095      -0.49385602
H       -3.54957478       0.78578165      -1.39670156
H       -5.03128778       0.57845281      -0.42557261
H       -3.67578322       1.10064360       1.76973302
H       -2.92582195      -1.44920271       0.90637997
H       -1.00890645       1.76631279       0.51408702
H        1.55903521       1.85369200       0.19488221
H        3.70519569       0.64506519       0.54291321
H        3.75419725      -1.13819281       0.42813086
H        4.65527015      -0.08353947      -1.67418287
H        3.14518684      -1.00169495      -2.01779034
H        3.09720609       0.77114100      -1.91232341
H        1.74355219      -2.44017568       0.40888951
H       -0.76320052      -2.55503714       0.73368787
25
Properties=species:S:1:pos:R:3 pbc="F F F"
C       -4.02343751       1.07922058      -0.42286447
C       -3.23021571       0.74036867       0.78946625
C       -2.41042934      -0.43064610       0.78945171
C       -1.00500183      -0.38738131       0.63090749
C       -0.33643072       0.83976379       0.47595696
C        1.02154166       0.88224478       0.30109802
C        1.78010326      -0.28912487       0.28148265
C        3.26978072      -0.23073228       0.02664941
C        3.58476795      -0.12986904      -1.47468169
C        1.12692738      -1.51367143       0.43000546
C       -0.22901607      -1.57762399       0.60239282
H       -4.24992419       2.18888018      -0.49583809
H       -3.55095462       0.78637101      -1.40340767
H       -5.03310294       0.57861628      -0.42623013
H       -3.67886224       1.09827918       1.77467435
H       -2.92980863      -1.45986087       0.90721347
H       -1.01724624       1.76786571       0.51211929
H        1.56279188       1.86000114       0.19401558
H        3.70676770       0.64753772       0.54398985
H        3.75560072      -1.14031090       0.42858853
H        4.65992965      -0.08338410      -1.67748561
H        3.14410260      -1.00414911      -2.02140602
H        3.09551659       0.77514991      -1.91696432
H        1.74662165      -2.44467677       0.40889115
H       -0.76630729      -2.56150090       0.73433517
25
Properties=species:S:1:pos:R:3 pbc="F F F"
C       -4.02560630       1.07953941      -0.42274363
C       -3.23091390       0.74053513       0.78915718
C       -2.41000020      -0.43026217       0.78946065
C       -1.00459885      -0.38715139       0.63097954
C       -0.33659119       0.83937360       0.47620577
C        1.02162597       0.88166042       0.30116148
C        1.78054213      -0.28912401       0.28155489
C        3.27011196      -0.23067389       0.02637393
C        3.58559184      -0.12985630      -1.47416016
C        1.12677563      -1.51302216       0.42995982
C       -0.22907282      -1.57727886       0.60267327
H       -4.24951687       2.19197307      -0.49543525
H       -3.54454166       0.78228666      -1.40879056
H       -5.03434656       0.57876258      -0.42650485
H       -3.67930111       1.09726634       1.77545334
H       -2.93214896      -1.45987906       0.90693981
H       -1.01688978       1.78064574       0.51493225
H        1.56275750       1.85970725       0.19470499
H        3.70729055       0.64804494       0.54394884
H        3.75606813      -1.14074118       0.42846767
H        4.66242391      -0.08349035      -1.67711244
H        3.14226779      -1.00664430      -2.02100265
H        3.09295007       0.77843470      -1.91580262
H        1.74678277      -2.44433610       0.40908981
H       -0.76641547      -2.56119465       0.73423662
25
Properties=species:S:1:pos:R:3 pbc="F F F"
C       -4.02751474       1.07997752      -0.42288486
C       -3.23166731       0.74059327       0.78910207
C       -2.40972787      -0.43008806       0.78946061
C       -1.00414330      -0.38692203       0.63103593
C       -0.33636516       0.83887394       0.47643155
C        1.02148765       0.88144663       0.30117469
C        1.78091437      -0.28912525       0.28161664
C        3.27040340      -0.23061411       0.02620590
C        3.58587282      -0.12979772      -1.47389340
C        1.12669184      -1.51302458       0.42993625
C       -0.22913836      -1.57733844       0.60296710
H       -4.24922231       2.19271995      -0.49545758
H       -3.54296563       0.78127607      -1.40860588
H       -5.03547309       0.57910871      -0.42689709
H       -3.67948180       1.09656824       1.77604750
H       -2.93215243      -1.46023458       0.90667375
H       -1.01645139       1.78125411       0.51509803
H        1.56264399       1.85931827       0.19501020
H        3.70786425       0.64832133       0.54402734
H        3.75655288      -1.14100239       0.42846985
H        4.66347647      -0.08361171      -1.67753751
H        3.14157446      -1.00716246      -2.02066624
H        3.09231629       0.77899170      -1.91518504
H        1.74682828      -2.44401768       0.40919628
H       -0.76627057      -2.56099578       0.73408561
25
Properties=species:S:1:pos:R:3 pbc="F F F"
C       -4.02933226       1.08044570      -0.42305611
C       -3.23242541       0.74058156       0.78914733
C       -2.40956486      -0.42998071       0.78944658
C       -1.00362862      -0.38669414       0.63107630
C       -0.33604971       0.83866082       0.47664584
C        1.02159837       0.88136710       0.30121594
C        1.78123752      -0.28912646       0.28163230
C        3.27066605      -0.23054907       0.02608805
C        3.58597813      -0.12972458      -1.47367990
C        1.12684928      -1.51306807       0.42991657
C       -0.22930955      -1.57747103       0.60325865
H       -4.24906512       2.19325945      -0.49569796
H       -3.54212397       0.78070500      -1.40846083
H       -5.03663745       0.57946702      -0.42731253
H       -3.67955480       1.09589402       1.77660183
H       -2.93193330      -1.46062084       0.90641155
H       -1.01609413       1.78172811       0.51521867
H        1.56248849       1.85890903       0.19529253
H        3.70844367       0.64856598       0.54415502
H        3.75703769      -1.14123686       0.42851298
H        4.66437644      -0.08372760      -1.67816480
H        3.14097067      -1.00746282      -2.02050054
H        3.09189202       0.77929586      -1.91487309
H        1.74684595      -2.44367253       0.40929621
H       -0.76612076      -2.56079040       0.73392757
25
Properties=species:S:1:pos:R:3 pbc="F F F"
C       -4.03107730       1.08091861      -0.42321218
C       -3.23316813       0.74053054       0.78923471
C       -2.40945934      -0.42989789       0.78941794
C       -1.00305838      -0.38647259       0.63110144
C       -0.33584566       0.83856458       0.47687552
C        1.02179599       0.88124859       0.30127351
C        1.78153438      -0.28912498       0.28159416
C        3.27090213      -0.23047907       0.02600358
C        3.58599264      -0.12964481      -1.47349211
C        1.12705117      -1.51307606       0.42989118
C       -0.22949769      -1.57759114       0.60352743
H       -4.24895047       2.19375500      -0.49602038
H       -3.54149777       0.78026206      -1.40837037
H       -5.03781828       0.57981306      -0.42772058
H       -3.67953995       1.09519025       1.77712715
H       -2.93164097      -1.46096982       0.90615074
H       -1.01571427       1.78211762       0.51533041
H        1.56229611       1.85849260       0.19557867
H        3.70901225       0.64880370       0.54431637
H        3.75750979      -1.14146204       0.42858064
H        4.66521490      -0.08383910      -1.67885860
H        3.14034942      -1.00769916      -2.02039978
H        3.09149975       0.77953962      -1.91467512
H        1.74684331      -2.44330057       0.40939498
H       -0.76598441      -2.56056789       0.73376735
25
Properties=species:S:1:pos:R:3 pbc="F F F"
C       -4.03282788       1.08140707      -0.42334676
C       -3.23392312       0.74045190       0.78934346
C       -2.40937553      -0.42982552       0.78937298
C       -1.00240850      -0.38625064       0.63111366
C       -0.33567916       0.83846627       0.47712669
C        1.02202770       0.88107973       0.30134313
C        1.78183465      -0.28911878       0.28151017
C        3.27112293      -0.23040184       0.02594285
C        3.58594363      -0.12955843      -1.47331578
C        1.12725976      -1.51305173       0.42985935
C       -0.22967883      -1.57769201       0.60377797
H       -4.24884886       2.19425703      -0.49640322
H       -3.54096039       0.77986945      -1.40831924
H       -5.03905280       0.58015922      -0.42812882
H       -3.67943699       1.09440797       1.77764359
H       -2.93130322      -1.46127505       0.90587874
H       -1.01526253       1.78243769       0.51544463
H        1.56206140       1.85805839       0.19588852
H        3.70958977       0.64905035       0.54451456
H        3.75798454      -1.14169147       0.42867204
H        4.66604340      -0.08395271      -1.67960579
H        3.13965994      -1.00791405      -2.02032653
H        3.09107936       0.77977215      -1.91452753
H        1.74682136      -2.44288725       0.40949702
H       -0.76585697      -2.56031378       0.73359903
25
Properties=species:S:1:pos:R:3 pbc="F F F"
C       -4.03456553       1.08190137      -0.42345474
C       -3.23468431       0.74035003       0.78945973
C       -2.40929476      -0.42976333       0.78931138
C       -1.00168410      -0.38603183       0.63111363
C       -0.33550113       0.83834033       0.47739082
C        1.02226713       0.88087015       0.30142174
C        1.78214259      -0.28910674       0.28139474
C        3.27132636      -0.23031909       0.02590460
C        3.58583967      -0.12946820      -1.47315119
C        1.12745544      -1.51299879       0.42982307
C       -0.22983820      -1.57776980       0.60400327
H       -4.24875032       2.19476808      -0.49683099
H       -3.54048987       0.77951453      -1.40830479
H       -5.04032273       0.58050311      -0.42852858
H       -3.67924103       1.09354572       1.77814076
H       -2.93094062      -1.46152153       0.90559646
H       -1.01472070       1.78267480       0.51556260
H        1.56178769       1.85761498       0.19622337
H        3.71016951       0.64930433       0.54474805
H        3.75845427      -1.14192391       0.42878598
H        4.66685245      -0.08406866      -1.68037680
H        3.13890041      -1.00811562      -2.02026916
H        3.09061679       0.78000276      -1.91440924
H        1.74677927      -2.44243713       0.40960105
H       -0.76573650      -2.56002516       0.73342391
25
Properties=species:S:1:pos:R:3 pbc="F F F"
C       -4.03629518       1.08239987      -0.42353695
C       -3.23545870       0.74022347       0.78957530
C       -2.40920344      -0.42971316       0.78923291
C       -1.00088448      -0.38581481       0.63110179
C       -0.33528527       0.83818076       0.47766412
C        1.02250155       0.88063034       0.30150820
C        1.78246085      -0.28908804       0.28126037
C        3.27151334      -0.23023155       0.02588773
C        3.58568496      -0.12937560      -1.47299775
C        1.12762899      -1.51292065       0.42978436
C       -0.22997112      -1.57782385       0.60420148
H       -4.24864441       2.19529076      -0.49729866
H       -3.54007217       0.77918731      -1.40832557
H       -5.04162733       0.58084694      -0.42891746
H       -3.67894797       1.09259833       1.77861655
H       -2.93056333      -1.46170404       0.90530132
H       -1.01407174       1.78282256       0.51568568
H        1.56147508       1.85716444       0.19658731
H        3.71075439       0.64956631       0.54501877
H        3.75891917      -1.14216012       0.42892327
H        4.66764233      -0.08418859      -1.68115988
H        3.13806623      -1.00830925      -2.02022086
H        3.09010063       0.78023638      -1.91430722
H        1.74671452      -2.44194931       0.40970719
H       -0.76561779      -2.55969642       0.73324067
25
Properties=species:S:1:pos:R:3 pbc="F F F"
C       -4.03801607       1.08289938      -0.42359306
C       -3.23625303       0.74006776       0.78968343
C       -2.40909252      -0.42967764       0.78913765
C       -1.00001187      -0.38559734       0.63107758
C       -0.33501900       0.83798639       0.47794353
C        1.02272230       0.88037130       0.30160148
C        1.78278794      -0.28906192       0.28111709
C        3.27168377      -0.23013988       0.02589146
C        3.58548299      -0.12928221      -1.47285667
C        1.12777308      -1.51281996       0.42974518
C       -0.23007601      -1.57785294       0.60437080
H       -4.24851769       2.19582323      -0.49780207
H       -3.53969887       0.77888158      -1.40838223
H       -5.04296176       0.58119104      -0.42929112
H       -3.67855691       1.09156556       1.77907146
H       -2.93017816      -1.46181927       0.90499071
H       -1.01330351       1.78287660       0.51581496
H        1.56112309       1.85670821       0.19698362
H        3.71134551       0.64983570       0.54532864
H        3.75937820      -1.14239980       0.42908490
H        4.66841198      -0.08431396      -1.68194549
H        3.13715715      -1.00849763      -2.02017811
H        3.08952412       0.78047494      -1.91421364
H        1.74662299      -2.44142263       0.40981548
H       -0.76549568      -2.55932175       0.73304780
25
Properties=species:S:1:pos:R:3 pbc="F F F"
C       -4.03972095       1.08339447      -0.42361897
C       -3.23707099       0.73987683       0.78977781
C       -2.40895665      -0.42965943       0.78902609
C       -0.99907115      -0.38537660       0.63103952
C       -0.33469892       0.83775740       0.47822647
C        1.02292308       0.88010342       0.30170052
C        1.78312033      -0.28902725       0.28097181
C        3.27183622      -0.23004436       0.02591471
C        3.58523744      -0.12918951      -1.47273097
C        1.12788078      -1.51269855       0.42970701
C       -0.23015357      -1.57785505       0.60450922
H       -4.24835371       2.19635992      -0.49833669
H       -3.53936278       0.77859005      -1.40847439
H       -5.04431506       0.58153414      -0.42964396
H       -3.67807228       1.09045088       1.77950926
H       -2.92978984      -1.46186513       0.90466356
H       -1.01240969       1.78283606       0.51595103
H        1.56072988       1.85624802       0.19741393
H        3.71194168       0.65011164       0.54567921
H        3.75982878      -1.14264159       0.42927141
H        4.66916027      -0.08444576      -1.68272568
H        3.13617702      -1.00868143      -2.02013976
H        3.08888475       0.78071913      -1.91412422
H        1.74649966      -2.44085606       0.40992528
H       -0.76536621      -2.55889615       0.73284391
25
Properties=species:S:1:pos:R:3 pbc="F F F"
C       -4.04139678       1.08387773      -0.42360427
C       -3.23791227       0.73964392       0.78985238
C       -2.40879210      -0.42966093       0.78889900
C       -0.99806861      -0.38515017       0.63098578
C       -0.33432696       0.83749453       0.47851103
C        1.02309896       0.87983610       0.30180410
C        1.78345323      -0.28898262       0.28082913
C        3.27196809      -0.22994492       0.02595565
C        3.58495340      -0.12909927      -1.47262541
C        1.12794510      -1.51255757       0.42967054
C       -0.23020551      -1.57782758       0.60461449
H       -4.24813455       2.19689369      -0.49889745
H       -3.53905770       0.77830625      -1.40860011
H       -5.04567295       0.58187414      -0.42996995
H       -3.67750172       1.08925882       1.77993675
H       -2.92940343      -1.46183981       0.90431937
H       -1.01138973       1.78270380       0.51609525
H        1.56029305       1.85578426       0.19787849
H        3.71253875       0.65039270       0.54607111
H        3.76026602      -1.14288269       0.42948264
H        4.66988629      -0.08458441      -1.68349283
H        3.13513411      -1.00886002      -2.02010588
H        3.08818421       0.78096886      -1.91403743
H        1.74633972      -2.44024895       0.41003553
H       -0.76522661      -2.55841612       0.73262813
25
Properties=species:S:1:pos:R:3 pbc="F F F"
C       -4.04302573       1.08434030      -0.42353229
C       -3.23877067       0.73936313       0.78990135
C       -2.40859602      -0.42968471       0.78875742
C       -0.99701086      -0.38491736       0.63091521
C       -0.33390859       0.83719900       0.47879620
C        1.02324590       0.87957735       0.30191119
C        1.78378117      -0.28892639       0.28069182
C        3.27207562      -0.22984118       0.02601238
C        3.58463703      -0.12901324      -1.47254595
C        1.12795887      -1.51239761       0.42963603
C       -0.23023434      -1.57776804       0.60468453
H       -4.24784529       2.19741763      -0.49948026
H       -3.53878097       0.77802448      -1.40875660
H       -5.04702090       0.58220859      -0.43026318
H       -3.67685236       1.08799443       1.78036110
H       -2.92902516      -1.46174183       0.90395775
H       -1.01024585       1.78248574       0.51624935
H        1.55980991       1.85531630       0.19837654
H        3.71313050       0.65067721       0.54650431
H        3.76068367      -1.14311924       0.42971773
H        4.67058953      -0.08473021      -1.68423941
H        3.13404040      -1.00903172      -2.02007787
H        3.08742817       0.78122370      -1.91395359
H        1.74613943      -2.43960133       0.41014496
H       -0.76507508      -2.55788041       0.73240011
25
Properties=species:S:1:pos:R:3 pbc="F F F"
C       -4.04458995       1.08477368      -0.42338584
C       -3.23963442       0.73903019       0.78991916
C       -2.40836548      -0.42973282       0.78860240
C       -0.99590393      -0.38467969       0.63082791
C       -0.33345106       0.83687224       0.47908143
C        1.02336006       0.87933347       0.30202115
C        1.78409809      -0.28885670       0.28056145
C        3.27215397      -0.22973237       0.02608338
C        3.58429383      -0.12893280      -1.47249829
C        1.12791452      -1.51221857       0.42960343
C       -0.23024279      -1.57767449       0.60471771
H       -4.24747566       2.19792523      -0.50008217
H       -3.53853289       0.77773986      -1.40894052
H       -5.04834518       0.58253494      -0.43051818
H       -3.67612679       1.08666101       1.78078756
H       -2.92866181      -1.46156797       0.90357809
H       -1.00898021       1.78218854       0.51641538
H        1.55927705       1.85484215       0.19890661
H        3.71370880       0.65096422       0.54697796
H        3.76107471      -1.14334643       0.42997539
H        4.67126928      -0.08488233      -1.68495712
H        3.13291007      -1.00919493      -2.02005737
H        3.08662448       0.78148326      -1.91387412
H        1.74589689      -2.43891390       0.41025221
H       -0.76491109      -2.55729027       0.73216005
25
Properties=species:S:1:pos:R:3 pbc="F F F"
C       -4.04608129       1.08517259      -0.42315855
C       -3.24048655       0.73864242       0.78990036
C       -2.40809873      -0.42980629       0.78843431
C       -0.99475199      -0.38444097       0.63072505
C       -0.33296332       0.83651610       0.47936502
C        1.02343831       0.87910842       0.30213379
C        1.78439822      -0.28877177       0.28043790
C        3.27219780      -0.22961777       0.02616806
C        3.58392635      -0.12885833      -1.47248662
C        1.12780486      -1.51201980       0.42957245
C       -0.23023373      -1.57754606       0.60471305
H       -4.24702124       2.19840996      -0.50070202
H       -3.53831853       0.77745001      -1.40914790
H       -5.04963492       0.58285122      -0.43073031
H       -3.67532054       1.08526141       1.78121804
H       -2.92831944      -1.46131284       0.90317922
H       -1.00759485       1.78181895       0.51659501
H        1.55869111       1.85435807       0.19946703
H        3.71426550       0.65125349       0.54749074
H        3.76143311      -1.14355899       0.43025420
H        4.67192467      -0.08503969      -1.68563865
H        3.13175758      -1.00934748      -2.02004639
H        3.08578150       0.78174728      -1.91380157
H        1.74561324      -2.43818882       0.41035658
H       -0.76473503      -2.55665027       0.73190915
25
Properties=species:S:1:pos:R:3 pbc="F F F"
C       -4.04750400       1.08553557      -0.42286015
C       -3.24130578       0.73819996       0.78983892
C       -2.40779520      -0.42990490       0.78825210
C       -0.99355719      -0.38420656       0.63060832
C       -0.33245457       0.83613524       0.47964029
C        1.02347801       0.87890421       0.30224898
C        1.78467464      -0.28867023       0.28032019
C        3.27220266      -0.22949655       0.02626606
C        3.58353274      -0.12878922      -1.47251241
C        1.12762341      -1.51180017       0.42954241
C       -0.23020952      -1.57738340       0.60467050
H       -4.24648366       2.19886539      -0.50133778
H       -3.53814548       0.77715412      -1.40937351
H       -5.05088139       0.58315518      -0.43089393
H       -3.67442192       1.08379904       1.78165217
H       -2.92800516      -1.46096956       0.90275895
H       -1.00609241       1.78138297       0.51678918
H        1.55804985       1.85385966       0.20005558
H        3.71479466       0.65154610       0.54804145
H        3.76175517      -1.14375223       0.43055293
H        4.67255545      -0.08520148      -1.68627740
H        3.13059495      -1.00948700      -2.02004571
H        3.08490649       0.78201474      -1.91373750
H        1.74529263      -2.43742944       0.41045782
H       -0.76454760      -2.55596806       0.73164935
25
Properties=species:S:1:pos:R:3 pbc="F F F"
C       -4.04886861       1.08586238      -0.42250889
C       -3.24206890       0.73770566       0.78972825
C       -2.40745453      -0.43002759       0.78805309
C       -0.99231992      -0.38398306       0.63047927
C       -0.33193503       0.83573382       0.47990156
C        1.02347663       0.87872107       0.30236654
C        1.78492064      -0.28855115       0.28020603
C        3.27216502      -0.22936782       0.02637647
C        3.58310677      -0.12872357      -1.47257448
C        1.12736438      -1.51155801       0.42951206
C       -0.23017230      -1.57718848       0.60459057
H       -4.24586535       2.19928342      -0.50198593
H       -3.53802248       0.77685245      -1.40960988
H       -5.05207584       0.58344482      -0.43100356
H       -3.67341530       1.08227811       1.78208735
H       -2.92772769      -1.46052945       0.90231446
H       -1.00447599       1.78088689       0.51699784
H        1.55735176       1.85334224       0.20066984
H        3.71529201       0.65184510       0.54862842
H        3.76204006      -1.14392188       0.43087030
H        4.67316252      -0.08536681      -1.68686878
H        3.12943093      -1.00961142      -2.02005478
H        3.08400424       0.78228404      -1.91368349
H        1.74494130      -2.43663960       0.41055639
H       -0.76435029      -2.55525369       0.73138290
25
Properties=species:S:1:pos:R:3 pbc="F F F"
C       -4.05018396       1.08615154      -0.42212279
C       -3.24275414       0.73716439       0.78956145
C       -2.40707898      -0.43017171       0.78783304
C       -0.99104024      -0.38377647       0.63033880
C       -0.33141431       0.83530882       0.48015416
C        1.02343189       0.87855824       0.30248543
C        1.78513056      -0.28841370       0.28009186
C        3.27208178      -0.22923061       0.02649773
C        3.58263999      -0.12865873      -1.47266965
C        1.12702262      -1.51129086       0.42947922
C       -0.23012464      -1.57696443       0.60447405
H       -4.24516699       2.19965447      -0.50264279
H       -3.53795633       0.77654546      -1.40984981
H       -5.05320855       0.58371806      -0.43105327
H       -3.67228380       1.08070511       1.78252187
H       -2.92749612      -1.45998333       0.90184232
H       -1.00274719       1.78033689       0.51721805
H        1.55659557       1.85280240       0.20130580
H        3.71575425       0.65215609       0.54924931
H        3.76228880      -1.14406419       0.43120486
H        4.67374682      -0.08553467      -1.68740935
H        3.12827003      -1.00971812      -2.02007349
H        3.08307693       0.78255280      -1.91364053
H        1.74456613      -2.43582373       0.41065241
H       -0.76414454      -2.55451803       0.73111119
25
Properties=species:S:1:pos:R:3 pbc="F F F"
C       -4.05145369       1.08639937      -0.42171627
C       -3.24334265       0.73658270       0.78933229
C       -2.40667267      -0.43033378       0.78758733
C       -0.98971809      -0.38359170       0.63018697
C       -0.33089969       0.83485685       0.48040172
C        1.02334169       0.87841451       0.30260411
C        1.78529962      -0.28825697       0.27997343
C        3.27194964      -0.22908416       0.02662806
C        3.58212466      -0.12859218      -1.47279350
C        1.12659353      -1.51099550       0.42944116
C       -0.23006974      -1.57671515       0.60432229
H       -4.24438697       2.19996660      -0.50330314
H       -3.53795027       0.77623292      -1.41008491
H       -5.05426920       0.58397230      -0.43103705
H       -3.67101129       1.07908927       1.78295607
H       -2.92732080      -1.45932214       0.90134045
H       -1.00090971       1.77974116       0.51744599
H        1.55578075       1.85223785       0.20195779
H        3.71617752       0.65248572       0.54990092
H        3.76250293      -1.14417668       0.43155498
H        4.67430888      -0.08570446      -1.68789544
H        3.12711462      -1.00980501      -2.02010081
H        3.08212570       0.78281877      -1.91360887
H        1.74417398      -2.43498657       0.41074563
H       -0.76393344      -2.55377312       0.73083557
25
Properties=species:S:1:pos:R:3 pbc="F F F"
C       -4.05267596       1.08660038      -0.42130020
C       -3.24381904       0.73596772       0.78903603
C       -2.40624019      -0.43051006       0.78731174
C       -0.98835342      -0.38343288       0.63002338
C       -0.33039676       0.83437648       0.48064255
C        1.02320424       0.87828805       0.30272077
C        1.78542268      -0.28807993       0.27984693
C        3.27176465      -0.22892776       0.02676596
C        3.58155402      -0.12852196      -1.47294038
C        1.12607294      -1.51066782       0.42939492
C       -0.23001104      -1.57644482       0.60413690
H       -4.24352059       2.20020657      -0.50396055
H       -3.53800463       0.77591343      -1.41030600
H       -5.05524609       0.58420458      -0.43094900
H       -3.66958305       1.07744185       1.78339232
H       -2.92721271      -1.45853812       0.90080882
H       -0.99896805       1.77910876       0.51767696
H        1.55490765       1.85164797       0.20261885
H        3.71655638       0.65284164       0.55057862
H        3.76268265      -1.14425685       0.43191862
H        4.67484697      -0.08587621      -1.68832269
H        3.12596493      -1.00987045      -2.02013445
H        3.08115089       0.78307929      -1.91358819
H        1.74377145      -2.43413266       0.41083619
H       -0.76371985      -2.55303101       0.73055677
25
Properties=species:S:1:pos:R:3 pbc="F F F"
C       -4.05384560       1.08674838      -0.42088318
C       -3.24417237       0.73532631       0.78866984
C       -2.40578590      -0.43069690       0.78700269
C       -0.98694543      -0.38330344       0.62984764
C       -0.32991067       0.83386873       0.48087081
C        1.02301844       0.87817660       0.30283392
C        1.78549349      -0.28788215       0.27970886
C        3.27152219      -0.22876122       0.02691124
C        3.58092393      -0.12844668      -1.47310391
C        1.12545730      -1.51030303       0.42933752
C       -0.22995224      -1.57615777       0.60391993
H       -4.24256311       2.20036102      -0.50460784
H       -3.53811885       0.77558488      -1.41050419
H       -5.05612747       0.58441177      -0.43078404
H       -3.66798410       1.07577457       1.78383341
H       -2.92718208      -1.45762504       0.90024874
H       -0.99692757       1.77844902       0.51790581
H        1.55397766       1.85103381       0.20328130
H        3.71688404       0.65323214       0.55127695
H        3.76282654      -1.14430233       0.43229315
H        4.67535818      -0.08605035      -1.68868609
H        3.12481991      -1.00991286      -2.02017189
H        3.08015349       0.78333157      -1.91357751
H        1.74336452      -2.43326659       0.41092371
H       -0.76350594      -2.55230246       0.73027502
25
Properties=species:S:1:pos:R:3 pbc="F F F"
C       -4.05495491       1.08683665      -0.42047213
C       -3.24439510       0.73466493       0.78823292
C       -2.40531348      -0.43089024       0.78665723
C       -0.98549312      -0.38320601       0.62965950
C       -0.32944794       0.83334065       0.48107326
C        1.02278387       0.87807776       0.30294252
C        1.78550617      -0.28766358       0.27955643
C        3.27121586      -0.22858492       0.02706560
C        3.58023324      -0.12836618      -1.47327734
C        1.12474354      -1.50989555       0.42926628
C       -0.22989741      -1.57585789       0.60367400
H       -4.24150938       2.20041672      -0.50523666
H       -3.53829173       0.77524437      -1.41067088
H       -5.05690172       0.58459059      -0.43053776
H       -3.66620029       1.07409882       1.78428363
H       -2.92723853      -1.45658018       0.89966255
H       -0.99479549       1.77777238       0.51812804
H        1.55299297       1.85039860       0.20393716
H        3.71715344       0.65366557       0.55198942
H        3.76293221      -1.14431147       0.43267551
H        4.67583817      -0.08622797      -1.68898017
H        3.12367838      -1.00993137      -2.02021011
H        3.07913618       0.78357140      -1.91357556
H        1.74295760      -2.43239267       0.41100727
H       -0.76329277      -2.55159623       0.72999005
25
Properties=species:S:1:pos:R:3 pbc="F F F"
C       -4.05599575       1.08685843      -0.42007245
C       -3.24448315       0.73398901       0.78772577
C       -2.40482555      -0.43108596       0.78627311
C       -0.98399523      -0.38314267       0.62945913
C       -0.32901606       0.83280122       0.48123561
C        1.02250002       0.87798878       0.30304603
C        1.78545579      -0.28742415       0.27938772
C        3.27084126      -0.22839969       0.02722941
C        3.57948394      -0.12828116      -1.47345451
C        1.12392850      -1.50943942       0.42917885
C       -0.22985127      -1.57554867       0.60340190
H       -4.24035521       2.20036203      -0.50583787
H       -3.53852231       0.77488939      -1.41079816
H       -5.05756014       0.58473861      -0.43020668
H       -3.66421601       1.07242506       1.78474690
H       -2.92738913      -1.45540353       0.89905398
H       -0.99258041       1.77708978       0.51833970
H        1.55195574       1.84974646       0.20457834
H        3.71735700       0.65415015       0.55270864
H        3.76299667      -1.14428321       0.43306175
H        4.67628311      -0.08641080      -1.68919927
H        3.12253889      -1.00992518      -2.02024605
H        3.07810239       0.78379321      -1.91358024
H        1.74255324      -2.43151499       0.41108615
H       -0.76308136      -2.55091902       0.72970149
25
Properties=species:S:1:pos:R:3 pbc="F F F"
C       -4.05696059       1.08680728      -0.41968813
C       -3.24443470       0.73330379       0.78714913
C       -2.40432436      -0.43127934       0.78584723
C       -0.98245062      -0.38311442       0.62924634
C       -0.32861735       0.83224569       0.48136253
C        1.02216582       0.87790721       0.30314408
C        1.78533735      -0.28716320       0.27920098
C        3.27040282      -0.22820564       0.02739577
C        3.57868033      -0.12819280      -1.47363061
C        1.12300841      -1.50892822       0.42907279
C       -0.22981960      -1.57523276       0.60310581
H       -4.23909871       2.20018714      -0.50640229
H       -3.53881037       0.77451820      -1.41087935
H       -5.05809684       0.58485436      -0.42978842
H       -3.66201635       1.07076207       1.78522586
H       -2.92763944      -1.45409594       0.89842558
H       -0.99029470       1.77641246       0.51853658
H        1.55086723       1.84908223       0.20519643
H        3.71748594       0.65469366       0.55342605
H        3.76301554      -1.14421547       0.43344686
H        4.67669090      -0.08660080      -1.68933906
H        3.12139986      -1.00989312      -2.02027634
H        3.07705641       0.78399070      -1.91358971
H        1.74215168      -2.43063639       0.41115921
H       -0.76287327      -2.55027453       0.72940825
25
Properties=species:S:1:pos:R:3 pbc="F F F"
C       -4.05784311       1.08667708      -0.41932027
C       -3.24425008       0.73261195       0.78650319
C       -2.40381227      -0.43146519       0.78537677
C       -0.98085857      -0.38312056       0.62902102
C       -0.32825217       0.83166678       0.48146104
C        1.02177987       0.87782994       0.30323705
C        1.78514617      -0.28688050       0.27899503
C        3.26990316      -0.22800316       0.02756013
C        3.57782813      -0.12810244      -1.47380202
C        1.12198007      -1.50835608       0.42894627
C       -0.22980874      -1.57491204       0.60278757
H       -4.23773805       2.19988409      -0.50692137
H       -3.53915606       0.77413021      -1.41090914
H       -5.05850951       0.58493827      -0.42928178
H       -3.65958482       1.06911684       1.78572296
H       -2.92799065      -1.45266059       0.89777916
H       -0.98795053       1.77575186       0.51871442
H        1.54972745       1.84840990       0.20578262
H        3.71753077       0.65530200       0.55413396
H        3.76298437      -1.14410603       0.43382578
H        4.67706188      -0.08679878      -1.68939660
H        3.12025982      -1.00983365      -2.02029939
H        3.07600406       0.78415752      -1.91360281
H        1.74175116      -2.42975937       0.41122594
H       -0.76266974      -2.54966301       0.72910894
25
Properties=species:S:1:pos:R:3 pbc="F F F"
C       -4.05863607       1.08646170      -0.41896810
C       -3.24392914       0.73191463       0.78578725
C       -2.40329057      -0.43163840       0.78485888
C       -0.97921880      -0.38316007       0.62878314
C       -0.32791991       0.83105993       0.48153411
C        1.02134072       0.87775271       0.30332600
C        1.78487796      -0.28657697       0.27876909
C        3.26934248      -0.22779355       0.02772039
C        3.57693303      -0.12800994      -1.47396418
C        1.12084177      -1.50771900       0.42879817
C       -0.22982478      -1.57458805       0.60244926
H       -4.23627215       2.19944668      -0.50738483
H       -3.53955806       0.77372476      -1.41088238
H       -5.05879679       0.58499042      -0.42868484
H       -3.65690618       1.06749448       1.78624278
H       -2.92844163      -1.45110153       0.89711614
H       -0.98556147       1.77511942       0.51886983
H        1.54853654       1.84773167       0.20632619
H        3.71748002       0.65597825       0.55482422
H        3.76289832      -1.14395200       0.43419286
H        4.67739885      -0.08700305      -1.68936806
H        3.11911765      -1.00974524      -2.02031568
H        3.07495161       0.78428944      -1.91361760
H        1.74134875      -2.42888712       0.41128554
H       -0.76247267      -2.54908294       0.72880219
25
Properties=species:S:1:pos:R:3 pbc="F F F"
C       -4.05933276       1.08615584      -0.41862845
C       -3.24347125       0.73121117       0.78499944
C       -2.40276033      -0.43179407       0.78429100
C       -0.97753154      -0.38323098       0.62853228
C       -0.32761843       0.83041915       0.48158608
C        1.02084608       0.87767004       0.30341310
C        1.78452922      -0.28625449       0.27852213
C        3.26872094      -0.22757870       0.02787525
C        3.57600072      -0.12791355      -1.47411075
C        1.11959373      -1.50701537       0.42862768
C       -0.22987399      -1.57426150       0.60209237
H       -4.23469840       2.19887094      -0.50778092
H       -3.54001438       0.77330212      -1.41079461
H       -5.05895792       0.58501163      -0.42799543
H       -3.65396381       1.06589788       1.78679009
H       -2.92898837      -1.44942383       0.89643592
H       -0.98314556       1.77452626       0.51899993
H        1.54729432       1.84704793       0.20681449
H        3.71731870       0.65672075       0.55548839
H        3.76275160      -1.14374900       0.43454188
H        4.67770696      -0.08720918      -1.68924895
H        3.11797276      -1.00962657      -2.02032753
H        3.07390542       0.78438477      -1.91363307
H        1.74094003      -2.42802260       0.41133650
H       -0.76228463      -2.54853123       0.72848673
25
Properties=species:S:1:pos:R:3 pbc="F F F"
C       -4.05992666       1.08575542      -0.41829570
C       -3.24287400       0.73050008       0.78413712
C       -2.40222347      -0.43192715       0.78367128
C       -0.97579911      -0.38332968       0.62826881
C       -0.32734551       0.82973936       0.48162000
C        1.02029249       0.87757414       0.30350271
C        1.78409717      -0.28591639       0.27825304
C        3.26803856      -0.22736093       0.02802389
C        3.57503792      -0.12781016      -1.47423462
C        1.11823869      -1.50624627       0.42843472
C       -0.22996267      -1.57393242       0.60171818
H       -4.23301534       2.19815363      -0.50809660
H       -3.54052481       0.77286392      -1.41064485
H       -5.05899319       0.58500301      -0.42721121
H       -3.65074009       1.06432898       1.78736854
H       -2.92962537      -1.44763303       0.89573652
H       -0.98072046       1.77398322       0.51910209
H        1.54600050       1.84635678       0.20723273
H        3.71702842       0.65752302       0.55611829
H        3.76253736      -1.14349121       0.43486527
H        4.67799264      -0.08740970      -1.68903279
H        3.11682602      -1.00947650      -2.02033883
H        3.07287332       0.78444388      -1.91364786
H        1.74052010      -2.42716971       0.41137683
H       -0.76210975      -2.54800357       0.72816170
25
Properties=species:S:1:pos:R:3 pbc="F F F"
C       -4.06041275       1.08525762      -0.41796227
C       -3.24213365       0.72977846       0.78319663
C       -2.40168218      -0.43203416       0.78299917
C       -0.97402453      -0.38345244       0.62799434
C       -0.32710292       0.82902538       0.48162971
C        1.01967512       0.87745636       0.30360065
C        1.78357920      -0.28556711       0.27796127
C        3.26729544      -0.22714210       0.02816427
C        3.57405472      -0.12769615      -1.47432859
C        1.11678184      -1.50541597       0.42822000
C       -0.23009617      -1.57360030       0.60132832
H       -4.23122222       2.19729180      -0.50831455
H       -3.54108976       0.77241226      -1.41043501
H       -5.05890407       0.58496534      -0.42632769
H       -3.64721813       1.06278614       1.78798327
H       -2.93034915      -1.44573722       0.89501456
H       -0.97830097       1.77350064       0.51917431
H        1.54465438       1.84565558       0.20756656
H        3.71658816       0.65837591       0.55670480
H        3.76224845      -1.14317132       0.43515335
H        4.67826496      -0.08759564      -1.68870932
H        3.11567987      -1.00929535      -2.02035248
H        3.07186607       0.78446903      -1.91365922
H        1.74008333      -2.42633253       0.41140407
H       -0.76195383      -2.54749522       0.72782690
