27
Properties=species:S:1:pos:R:3 pbc="F F F"
C       -1.36431706       1.91151404      -1.20330596
C       -2.59466004       2.04348493      -0.55440998
C       -3.10878611       0.94176197       0.09639100
C       -2.42253804      -0.26142901       0.11128300
C       -1.20761502      -0.43605101      -0.50337499
C       -0.65263402       0.69962698      -1.15786898
N        0.59997201       0.56553602      -1.66651201
N        1.41603005      -0.40061399      -1.64116096
C        2.23524499      -0.46074799      -0.54479802
C        3.16333604      -1.46747601      -0.33692101
N        3.74428511      -1.35201597       0.91566199
N        3.31027603      -0.11815400       1.45731401
C        2.25825810       0.39908999       0.64974803
O        1.58592200       1.34797299       0.97103101
N        3.56461692      -2.45776200      -1.14697802
O       -3.12145209      -1.18273902       0.84929597
C       -4.30842876      -0.52091599       1.27636397
O       -4.26163006       0.82527298       0.83618599
H        4.76164818      -1.36281502       0.86776102
H        3.06112409      -0.20903701       2.43963003
H       -0.93080503       2.75451112      -1.72641695
H       -3.11456108       2.99657989      -0.51694399
H       -0.66866302      -1.37225294      -0.47719300
H        3.08433509      -2.58607697      -2.02456903
H        4.09710693      -3.23346496      -0.77309602
H       -5.17603779      -1.02687800       0.83590198
H       -4.36299276      -0.54644501       2.37007904
27
Properties=species:S:1:pos:R:3 pbc="F F F"
C       -1.32383009       2.10392579      -1.10883667
C       -2.55052693       2.24524735      -0.49252473
C       -3.07033288       1.10954461       0.15467715
C       -2.35335778      -0.12962599       0.16695041
C       -1.14650060      -0.22323840      -0.42840635
C       -0.60840633       0.89140531      -1.08012554
N        0.60891655       0.85708405      -1.69681097
N        1.35092322      -0.34622108      -1.60638510
C        2.14336472      -0.39032388      -0.53330989
C        3.15766023      -1.33574738      -0.31519111
N        3.69602329      -1.11464599       0.89442388
N        3.24469711       0.08727782       1.38144586
C        2.15738388       0.50070226       0.62034376
O        1.42495259       1.42500947       0.96367302
N        3.51278576      -2.34171259      -1.12172291
O       -3.06536474      -1.06010063       0.82698642
C       -4.23536713      -0.36125396       1.24374876
O       -4.22107501       0.97999722       0.79264228
H        4.65546902      -1.36904046       1.16249966
H        3.25238638       0.18070683       2.39461038
H       -0.85344839       2.96780424      -1.62925957
H       -3.09569977       3.18254282      -0.51037333
H       -0.56188231      -1.20554360      -0.43432369
H        3.04831603      -2.46602179      -1.96422388
H        4.26368184      -2.94313961      -0.86560664
H       -5.12790643      -0.87584301       0.82996337
H       -4.30286223      -0.36878943       2.35513545
