27
Properties=species:S:1:pos:R:3 pbc="F F F"
C       -1.33741701       1.92824197      -1.12321699
C       -2.56018209       2.06052589      -0.50860500
C       -3.08645606       0.94223797       0.13843000
C       -2.36761808      -0.29636201       0.14998300
C       -1.14363205      -0.42377299      -0.46267900
C       -0.60982603       0.70807701      -1.10292304
N        0.58696198       0.72961003      -1.74075699
N        1.32102203      -0.52998298      -1.63964796
C        2.12941194      -0.53725201      -0.54421502
C        3.13771605      -1.49087703      -0.32870501
N        3.67228699      -1.27868700       0.87683803
N        3.22752595      -0.07182200       1.35192394
C        2.14128900       0.33384401       0.59904701
O        1.38853204       1.24916697       0.92732698
N        3.50050712      -2.49483609      -1.12220299
O       -3.07454896      -1.19539595       0.80674100
C       -4.24565601      -0.52641398       1.22334194
O       -4.21183920       0.80855602       0.77708298
H        4.61248493      -1.49990904       1.14545405
H        3.22827291      -0.02913200       2.35758400
H       -0.88289398       2.77205110      -1.62968802
H       -3.09308195       3.00474691      -0.52586102
H       -0.59179199      -1.35595095      -0.47115201
H        3.03143001      -2.63951707      -1.99226797
H        4.25087976      -3.10767603      -0.87930799
H       -5.12366104      -1.02523398       0.80700600
H       -4.31268406      -0.54376400       2.31356692
27
Properties=species:S:1:pos:R:3 pbc="F F F"
C       -1.32383009       2.10392579      -1.10883667
C       -2.55052693       2.24524735      -0.49252473
C       -3.07033288       1.10954461       0.15467715
C       -2.35335778      -0.12962599       0.16695041
C       -1.14650060      -0.22323840      -0.42840635
C       -0.60840633       0.89140531      -1.08012554
N        0.60891655       0.85708405      -1.69681097
N        1.35092322      -0.34622108      -1.60638510
C        2.14336472      -0.39032388      -0.53330989
C        3.15766023      -1.33574738      -0.31519111
N        3.69602329      -1.11464599       0.89442388
N        3.24469711       0.08727782       1.38144586
C        2.15738388       0.50070226       0.62034376
O        1.42495259       1.42500947       0.96367302
N        3.51278576      -2.34171259      -1.12172291
O       -3.06536474      -1.06010063       0.82698642
C       -4.23536713      -0.36125396       1.24374876
O       -4.22107501       0.97999722       0.79264228
H        4.65546902      -1.36904046       1.16249966
H        3.25238638       0.18070683       2.39461038
H       -0.85344839       2.96780424      -1.62925957
H       -3.09569977       3.18254282      -0.51037333
H       -0.56188231      -1.20554360      -0.43432369
H        3.04831603      -2.46602179      -1.96422388
H        4.26368184      -2.94313961      -0.86560664
H       -5.12790643      -0.87584301       0.82996337
H       -4.30286223      -0.36878943       2.35513545
