27
Properties=species:S:1:pos:R:3 pbc="F F F"
C       -1.32299526       2.10762346      -1.11446150
C       -2.55834093       2.25443240      -0.49843481
C       -3.07364250       1.10992228       0.15227293
C       -2.35864700      -0.13233119       0.16631776
C       -1.14446188      -0.23401091      -0.42508247
C       -0.61672610       0.89366736      -1.08278036
N        0.61234273       0.81393125      -1.67043031
N        1.36517904      -0.32464988      -1.58373802
C        2.16374261      -0.41100675      -0.53743955
C        3.16262647      -1.34549942      -0.32105432
N        3.67790361      -1.10261831       0.89190501
N        3.24585440       0.08574055       1.37877127
C        2.15870588       0.51363857       0.63505929
O        1.42790971       1.42558706       0.96240770
N        3.50009208      -2.33655550      -1.12779969
O       -3.06511504      -1.06162296       0.82366256
C       -4.21799985      -0.35174221       1.23415135
O       -4.21790599       0.97872760       0.78660123
H        4.65887346      -1.38137357       1.15418258
H        3.25787733       0.18794417       2.39199902
H       -0.84798806       2.97367183      -1.63826640
H       -3.10321459       3.19018886      -0.51300851
H       -0.55364990      -1.20356973      -0.42526944
H        3.04288519      -2.44952045      -1.96303168
H        4.26714623      -2.94942397      -0.86947484
H       -5.14532914      -0.87967967       0.83849271
H       -4.31512250      -0.37147086       2.35444851
27
Properties=species:S:1:pos:R:3 pbc="F F F"
C       -1.32290296       2.10647571      -1.11360361
C       -2.55682319       2.25409669      -0.49796346
C       -3.07256314       1.11000823       0.15202960
C       -2.35701828      -0.13107424       0.16544771
C       -1.14633019      -0.22968782      -0.42551081
C       -0.61614521       0.89374236      -1.08218556
N        0.61245980       0.82024959      -1.67337807
N        1.36272172      -0.32786799      -1.58805290
C        2.15927313      -0.40750442      -0.53607014
C        3.16115657      -1.34287553      -0.32039323
N        3.68356061      -1.10511817       0.89305314
N        3.24547927       0.08642217       1.37875274
C        2.15703989       0.50967039       0.62950465
O        1.42736792       1.42593029       0.96215296
N        3.50508630      -2.33770127      -1.12443528
O       -3.06515092      -1.06118532       0.82362412
C       -4.22547670      -0.35610226       1.23727043
O       -4.21918878       0.97975802       0.78722378
H        4.65902560      -1.37903996       1.15595184
H        3.25729803       0.18782328       2.39211150
H       -0.84788952       2.97351577      -1.63762557
H       -3.10137900       3.18956843      -0.51335508
H       -0.55489050      -1.20872325      -0.42726816
H        3.04598259      -2.45216906      -1.96054554
H        4.26522599      -2.94651490      -0.86945074
H       -5.14297066      -0.88087296       0.83496301
H       -4.31294839      -0.37082379       2.35775266
27
Properties=species:S:1:pos:R:3 pbc="F F F"
C       -1.32301846       2.10613414      -1.11297208
C       -2.55575248       2.25340203      -0.49732521
C       -3.07192924       1.10995625       0.15222002
C       -2.35592043      -0.13052307       0.16525831
C       -1.14695119      -0.22742786      -0.42594181
C       -0.61530528       0.89370026      -1.08177122
N        0.61242834       0.82515305      -1.67577264
N        1.36072885      -0.33078727      -1.59137285
C        2.15549166      -0.40476072      -0.53549421
C        3.16044484      -1.34151110      -0.31968972
N        3.68674808      -1.10694904       0.89375420
N        3.24541516       0.08664298       1.37914231
C        2.15663877       0.50717043       0.62645321
O        1.42710348       1.42613971       0.96244468
N        3.50781262      -2.33877488      -1.12328648
O       -3.06534428      -1.06097176       0.82401156
C       -4.22855682      -0.35803548       1.23886109
O       -4.21952841       0.98007505       0.78768026
H        4.65843196      -1.37734702       1.15713427
H        3.25680373       0.18737710       2.39213405
H       -0.84830224       2.97311489      -1.63668594
H       -3.10032312       3.18885642      -0.51320026
H       -0.55644448      -1.21009574      -0.42845370
H        3.04730139      -2.45425799      -1.96021234
H        4.26447545      -2.94509448      -0.86899656
H       -5.14080086      -0.88070683       0.83367820
H       -4.31164703      -0.37047905       2.35840290
27
Properties=species:S:1:pos:R:3 pbc="F F F"
C       -1.32313145       2.10596300      -1.11243770
C       -2.55492465       2.25261928      -0.49670088
C       -3.07151768       1.10990177       0.15249455
C       -2.35529112      -0.13022255       0.16533900
C       -1.14720484      -0.22599773      -0.42631626
C       -0.61443768       0.89358221      -1.08145750
N        0.61229478       0.82948193      -1.67823979
N        1.35905333      -0.33325904      -1.59411489
C        2.15263704      -0.40247188      -0.53518934
C        3.16000019      -1.34062299      -0.31907551
N        3.68890865      -1.10842180       0.89416238
N        3.24545259       0.08671832       1.37958272
C        2.15660987       0.50551394       0.62463290
O        1.42692967       1.42628000       0.96281524
N        3.50952936      -2.33958321      -1.12283988
O       -3.06544453      -1.06086415       0.82441650
C       -4.23045701      -0.35919300       1.23994877
O       -4.21971187       0.98023722       0.78810797
H        4.65791668      -1.37604872       1.15809001
H        3.25634521       0.18684361       2.39219573
H       -0.84879194       2.97264132      -1.63576596
H       -3.09955397       3.18814803      -0.51293210
H       -0.55770448      -1.21038387      -0.42935608
H        3.04796552      -2.45588369      -1.96032326
H        4.26414646      -2.94434278      -0.86852007
H       -5.13905326      -0.88039707       0.83288186
H       -4.31056488      -0.37023816       2.35860159
27
Properties=species:S:1:pos:R:3 pbc="F F F"
C       -1.32323311       2.10580744      -1.11195017
C       -2.55424041       2.25180111      -0.49611058
C       -3.07123589       1.10985989       0.15278523
C       -2.35492978      -0.13003704       0.16552941
C       -1.14731098      -0.22502862      -0.42663071
C       -0.61361455       0.89342044      -1.08120103
N        0.61209598       0.83341738      -1.68074495
N        1.35762455      -0.33536847      -1.59641824
C        2.15047893      -0.40049191      -0.53497828
C        3.15966608      -1.33994973      -0.31853116
N        3.69051020      -1.10964166       0.89438705
N        3.24550543       0.08673507       1.38000886
C        2.15670358       0.50434767       0.62346765
O        1.42677555       1.42634937       0.96315665
N        3.51069751      -2.34019947      -1.12265716
O       -3.06550829      -1.06079431       0.82479805
C       -4.23178134      -0.35992750       1.24075283
O       -4.21988887       0.98034599       0.78854630
H        4.65749609      -1.37497516       1.15889082
H        3.25591118       0.18626552       2.39233935
H       -0.84930019       2.97213629      -1.63489856
H       -3.09894068       3.18745754      -0.51263296
H       -0.55868279      -1.21024208      -0.43012290
H        3.04833412      -2.45728818      -1.96060181
H        4.26397929      -2.94391658      -0.86807932
H       -5.13754575      -0.88004332       0.83226201
H       -4.30956587      -0.37003967       2.35863363
27
Properties=species:S:1:pos:R:3 pbc="F F F"
C       -1.32332623       2.10563158      -1.11149249
C       -2.55364387       2.25096531      -0.49555669
C       -3.07102978       1.10982512       0.15307047
C       -2.35470123      -0.12990959       0.16575445
C       -1.14733390      -0.22435393      -0.42690265
C       -0.61284542       0.89322689      -1.08097913
N        0.61184403       0.83704714      -1.68319502
N        1.35639476      -0.33721833      -1.59837775
C        2.14882087      -0.39875271      -0.53479563
C        3.15937970      -1.33936859      -0.31803276
N        3.69175593      -1.11066048       0.89450012
N        3.24553081       0.08673717       1.38038871
C        2.15683488       0.50347327       0.62266378
O        1.42661614       1.42635555       0.96344649
N        3.51151061      -2.34067236      -1.12257724
O       -3.06555108      -1.06073890       0.82515026
C       -4.23274128      -0.36040051       1.24137128
O       -4.22008147       0.98042008       0.78900953
H        4.65714096      -1.37403540       1.15957319
H        3.25549161       0.18565371       2.39255033
H       -0.84981837       2.97161009      -1.63407684
H       -3.09842455       3.18678378      -0.51232567
H       -0.55944746      -1.20987673      -0.43080405
H        3.04853771      -2.45857666      -1.96097366
H        4.26388242      -2.94365649      -0.86767889
H       -5.13618895      -0.87965363       0.83173173
H       -4.30860684      -0.36985538       2.35855814
27
Properties=species:S:1:pos:R:3 pbc="F F F"
C       -1.32341364       2.10543005      -1.11105850
C       -2.55310704       2.25012277      -0.49503823
C       -3.07087082       1.10979123       0.15334242
C       -2.35452698      -0.12981647       0.16597874
C       -1.14730103      -0.22388324      -0.42714737
C       -0.61212469       0.89300763      -1.08078423
N        0.61153550       0.84043653      -1.68553770
N        1.35533016      -0.33888072      -1.60005484
C        2.14752015      -0.39721007      -0.53461502
C        3.15911339      -1.33882344      -0.31756610
N        3.69275170      -1.11151572       0.89454696
N        3.24551253       0.08674717       1.38070796
C        2.15697163       0.50278563       0.62207474
O        1.42644269       1.42629887       0.96368202
N        3.51207183      -2.34103376      -1.12252779
O       -3.06557442      -1.06068425       0.82547261
C       -4.23344956      -0.36070695       1.24186262
O       -4.22028141       0.98046059       0.78949756
H        4.65683092      -1.37318401       1.16016184
H        3.25507598       0.18501197       2.39280625
H       -0.85034366       2.97106844      -1.63329440
H       -3.09797354       3.18612369      -0.51201830
H       -0.56005372      -1.20937677      -0.43141925
H        3.04863548      -2.45979009      -1.96140014
H        4.26381935      -2.94348770      -0.86731408
H       -5.13492033      -0.87922107       0.83125776
H       -4.30767047      -0.36967030       2.35838448
27
Properties=species:S:1:pos:R:3 pbc="F F F"
C       -1.32349808       2.10520608      -1.11064491
C       -2.55261626       2.24928111      -0.49455191
C       -3.07074459       1.10975463       0.15359942
C       -2.35436782      -0.12974793       0.16618840
C       -1.14722921      -0.22356199      -0.42737409
C       -0.61144587       0.89276782      -1.08061432
N        0.61116743       0.84362862      -1.68774792
N        1.35439963      -0.34039649      -1.60149272
C        2.14647490      -0.39582538      -0.53442595
C        3.15885466      -1.33829292      -0.31712362
N        3.69356090      -1.11223997       0.89455502
N        3.24544869       0.08677492       1.38096501
C        2.15709937       0.50222830       0.62162590
O        1.42625748       1.42617417       0.96384815
N        3.51244600      -2.34130683      -1.12247297
O       -3.06558017      -1.06062255       0.82576854
C       -4.23397744      -0.36090345       1.24226485
O       -4.22047705       0.98046661       0.79000475
H        4.65655270      -1.37239811       1.16067580
H        3.25465571       0.18434275       2.39309056
H       -0.85087295       2.97051682      -1.63254733
H       -3.09756872       3.18547672      -0.51171396
H       -0.56054131      -1.20879459      -0.43198024
H        3.04865998      -2.46094476      -1.96185575
H        4.26377292      -2.94337345      -0.86697853
H       -5.13368123      -0.87873178       0.83084181
H       -4.30674970      -0.36947834       2.35809599
27
Properties=species:S:1:pos:R:3 pbc="F F F"
C       -1.32357931       2.10496545      -1.11025022
C       -2.55216148       2.24844535      -0.49409454
C       -3.07064116       1.10971420       0.15384156
C       -2.35420377      -0.12969877       0.16637878
C       -1.14712793      -0.22335419      -0.42758882
C       -0.61080062       0.89251199      -1.08046933
N        0.61074870       0.84664366      -1.68981584
N        1.35357242      -0.34178553      -1.60273344
C        2.14561685      -0.39456504      -0.53422535
C        3.15860036      -1.33777078      -0.31670182
N        3.69422664      -1.11286032       0.89453977
N        3.24534560       0.08682415       1.38116301
C        2.15721344       0.50176828       0.62127381
O        1.42605038       1.42600374       0.96393748
N        3.51267992      -2.34150804      -1.12239544
O       -3.06556934      -1.06055003       0.82604233
C       -4.23437378      -0.36102331       1.24260348
O       -4.22065798       0.98043824       0.79052486
H        4.65629897      -1.37166438       1.16112886
H        3.25422710       0.18364895       2.39339159
H       -0.85140080       2.96996041      -1.63183364
H       -3.09719507       3.18484491      -0.51141524
H       -0.56093637      -1.20816617      -0.43249777
H        3.04863397      -2.46204822      -1.96232523
H        4.26373650      -2.94329408      -0.86666711
H       -5.13244496      -0.87818785       0.83051897
H       -4.30585828      -0.36929261       2.35766929
27
Properties=species:S:1:pos:R:3 pbc="F F F"
C       -1.32365433       2.10471400      -1.10987377
C       -2.55173277       2.24761971      -0.49366419
C       -3.07055199       1.10967131       0.15406904
C       -2.35402322      -0.12966465       0.16654853
C       -1.14700121      -0.22323377      -0.42779646
C       -0.61017919       0.89224469      -1.08034953
N        0.61029876       0.84948938      -1.69174540
N        1.35282491      -0.34305620      -1.60381715
C        2.14490299      -0.39340216      -0.53401330
C        3.15835276      -1.33725523      -0.31629927
N        3.69478206      -1.11339752       0.89451003
N        3.24521302       0.08689726       1.38130548
C        2.15731508       0.50138600       0.62098760
O        1.42581629       1.42579805       0.96395995
N        3.51280979      -2.34164728      -1.12228739
O       -3.06554108      -1.06046398       0.82629743
C       -4.23468773      -0.36107243       1.24290202
O       -4.22081478       0.98037716       0.79105222
H        4.65606688      -1.37097199       1.16153055
H        3.25379060       0.18293527       2.39370072
H       -0.85192048       2.96940488      -1.63115244
H       -3.09683847       3.18423279      -0.51112546
H       -0.56125560      -1.20751545      -0.43298244
H        3.04857595      -2.46310437      -1.96280074
H        4.26370983      -2.94323742      -0.86637667
H       -5.13123671      -0.87761566       0.83029547
H       -4.30502137      -0.36913240       2.35712514
27
Properties=species:S:1:pos:R:3 pbc="F F F"
C       -1.32371981       2.10445826      -1.10951505
C       -2.55132098       2.24681006      -0.49326015
C       -3.07047055       1.10963039       0.15428197
C       -2.35382008      -0.12963983       0.16669776
C       -1.14685076      -0.22317960      -0.42800142
C       -0.60957358       0.89197220      -1.08025484
N        0.60983701       0.85217473      -1.69354797
N        1.35214316      -0.34421105      -1.60477412
C        2.14430513      -0.39231416      -0.53379099
C        3.15811517      -1.33674352      -0.31591547
N        3.69525490      -1.11386600       0.89447193
N        3.24505973       0.08699863       1.38139551
C        2.15740268       0.50107803       0.62072955
O        1.42555692       1.42556403       0.96392006
N        3.51286216      -2.34172595      -1.12214415
O       -3.06549431      -1.06035958       0.82653643
C       -4.23500141      -0.36115188       1.24322442
O       -4.22093945       0.98028695       0.79158203
H        4.65585486      -1.37030859       1.16188758
H        3.25334670       0.18220894       2.39401118
H       -0.85242737       2.96885829      -1.63050279
H       -3.09648549       3.18364774      -0.51084905
H       -0.56151099      -1.20685521      -0.43344393
H        3.04850015      -2.46411398      -1.96327873
H        4.26369435      -2.94319326      -0.86610555
H       -5.13007448      -0.87702928       0.83014230
H       -4.30424366      -0.36899636       2.35650351
27
Properties=species:S:1:pos:R:3 pbc="F F F"
C       -1.32377746       2.10419525      -1.10916957
C       -2.55092223       2.24601439      -0.49287871
C       -3.07039658       1.10958778       0.15448440
C       -2.35359631      -0.12962736       0.16683117
C       -1.14668175      -0.22318398      -0.42820378
C       -0.60898210       0.89169175      -1.08018060
N        0.60937531       0.85470230      -1.69523453
N        1.35151334      -0.34526290      -1.60562490
C        2.14379895      -0.39129167      -0.53355601
C        3.15788561      -1.33624090      -0.31554622
N        3.69566424      -1.11428097       0.89443879
N        3.24488794       0.08712467       1.38144036
C        2.15740089       0.50087227       0.62050545
O        1.42527026       1.42529992       0.96382390
N        3.51285102      -2.34174769      -1.12195676
O       -3.06543307      -1.06023987       0.82676532
C       -4.23521946      -0.36121473       1.24350424
O       -4.22102863       0.98016193       0.79211384
H        4.65565725      -1.36966995       1.16220889
H        3.25288803       0.18146791       2.39432011
H       -0.85292600       2.96832110      -1.62987804
H       -3.09612459       3.18308833      -0.51058903
H       -0.56171642      -1.20619896      -0.43388717
H        3.04841238      -2.46508529      -1.96375380
H        4.26368673      -2.94316176      -0.86584899
H       -5.12896399      -0.87643838       0.83003594
H       -4.30352336      -0.36888321       2.35583569
27
Properties=species:S:1:pos:R:3 pbc="F F F"
C       -1.32383009       2.10392579      -1.10883667
C       -2.55052693       2.24524735      -0.49252473
C       -3.07033288       1.10954461       0.15467715
C       -2.35335778      -0.12962599       0.16695041
C       -1.14650060      -0.22323840      -0.42840635
C       -0.60840633       0.89140531      -1.08012554
N        0.60891655       0.85708405      -1.69681097
N        1.35092322      -0.34622108      -1.60638510
C        2.14336472      -0.39032388      -0.53330989
C        3.15766023      -1.33574738      -0.31519111
N        3.69602329      -1.11464599       0.89442388
N        3.24469711       0.08727782       1.38144586
C        2.15738388       0.50070226       0.62034376
O        1.42495259       1.42500947       0.96367302
N        3.51278576      -2.34171259      -1.12172291
O       -3.06536474      -1.06010063       0.82698642
C       -4.23536713      -0.36125396       1.24374876
O       -4.22107501       0.97999722       0.79264228
H        4.65546902      -1.36904046       1.16249966
H        3.25238638       0.18070683       2.39461038
H       -0.85344839       2.96780424      -1.62925957
H       -3.09569977       3.18254282      -0.51037333
H       -0.56188231      -1.20554360      -0.43432369
H        3.04831603      -2.46602179      -1.96422388
H        4.26368184      -2.94313961      -0.86560664
H       -5.12790643      -0.87584301       0.82996337
H       -4.30286223      -0.36878943       2.35513545
27
Properties=species:S:1:pos:R:3 pbc="F F F"
C       -1.32387885       2.10365338      -1.10851113
C       -2.55014850       2.24448752      -0.49218554
C       -3.07027536       1.10950360       0.15486270
C       -2.35310787      -0.12963242       0.16706060
C       -1.14630522      -0.22333526      -0.42861012
C       -0.60784140       0.89111367      -1.08008510
N        0.60847762       0.85932630      -1.69831154
N        1.35036721      -0.34709699      -1.60707880
C        2.14299027      -0.38940225      -0.53304955
C        3.15744039      -1.33526216      -0.31484604
N        3.69631707      -1.11494311       0.89444059
N        3.24449255       0.08745626       1.38141791
C        2.15736718       0.50055872       0.62021657
O        1.42460675       1.42469573       0.96347516
N        3.51267990      -2.34162391      -1.12144239
O       -3.06528523      -1.05994263       0.82720378
C       -4.23545748      -0.36127168       1.24396685
O       -4.22108260       0.97980801       0.79316756
H        4.65528925      -1.36841638       1.16276019
H        3.25184041       0.17993114       2.39486033
H       -0.85398680       2.96729838      -1.62864601
H       -3.09522715       3.18198817      -0.51017947
H       -0.56202416      -1.20490210      -0.43474709
H        3.04821258      -2.46692300      -1.96468856
H        4.26368147      -2.94312365      -0.86537426
H       -5.12689593      -0.87524097       0.82990386
H       -4.30224610      -0.36870437       2.35441950
27
Properties=species:S:1:pos:R:3 pbc="F F F"
C       -1.32391006       2.10338121      -1.10819033
C       -2.54975736       2.24389084      -0.49189238
C       -3.07021501       1.10947006       0.15504574
C       -2.35284045      -0.12964153       0.16716674
C       -1.14608907      -0.22346632      -0.42881282
C       -0.60727792       0.89082401      -1.08005515
N        0.60806245       0.86145082      -1.69971417
N        1.34984883      -0.34789324      -1.60770274
C        2.14267659      -0.38851324      -0.53277373
C        3.15723471      -1.33477930      -0.31450788
N        3.69656493      -1.11517591       0.89449329
N        3.24428584       0.08766911       1.38137240
C        2.15735753       0.50044526       0.62012434
O        1.42424105       1.42436771       0.96323263
N        3.51255242      -2.34148102      -1.12111513
O       -3.06519189      -1.05974519       0.82742115
C       -4.23549258      -0.36126678       1.24416695
O       -4.22101340       0.97959276       0.79367993
H        4.65486863      -1.36767068       1.16294943
H        3.25133263       0.17908823       2.39486679
H       -0.85462936       2.96654717      -1.62790117
H       -3.09470093       3.18127089      -0.50994523
H       -0.56212942      -1.20421734      -0.43518222
H        3.04812179      -2.46778780      -1.96513654
H        4.26369130      -2.94310607      -0.86515024
H       -5.12591978      -0.87462650       0.82986782
H       -4.30167147      -0.36862717       2.35369250
27
Properties=species:S:1:pos:R:3 pbc="F F F"
C       -1.32392524       2.10309672      -1.10787990
C       -2.54953809       2.24339441      -0.49158468
C       -3.07015629       1.10943231       0.15522187
C       -2.35256532      -0.12966478       0.16726592
C       -1.14585815      -0.22364197      -0.42902089
C       -0.60671963       0.89052393      -1.08003940
N        0.60767016       0.86345423      -1.70103375
N        1.34935781      -0.34863182      -1.60827410
C        2.14241124      -0.38766327      -0.53248822
C        3.15703812      -1.33431111      -0.31418110
N        3.69675614      -1.11535714       0.89457384
N        3.24407700       0.08790153       1.38131481
C        2.15735016       0.50034645       0.62005480
O        1.42385082       1.42401559       0.96294292
N        3.51240703      -2.34130130      -1.12075041
O       -3.06508459      -1.05950529       0.82762820
C       -4.23548693      -0.36125449       1.24434793
O       -4.22087092       0.97935780       0.79416746
H        4.65443108      -1.36696775       1.16312397
H        3.25089967       0.17822966       2.39482749
H       -0.85520206       2.96572821      -1.62719498
H       -3.09419137       3.18054426      -0.50969524
H       -0.56227978      -1.20342017      -0.43562083
H        3.04804692      -2.46862964      -1.96556344
H        4.26370308      -2.94309665      -0.86494151
H       -5.12498100      -0.87401177       0.82984401
H       -4.30113985      -0.36856794       2.35295523
27
Properties=species:S:1:pos:R:3 pbc="F F F"
C       -1.32391661       2.10280268      -1.10758617
C       -2.54935546       2.24289219      -0.49128333
C       -3.07010113       1.10939295       0.15538992
C       -2.35228957      -0.12969901       0.16735835
C       -1.14561606      -0.22385928      -0.42923690
C       -0.60616830       0.89021531      -1.08003817
N        0.60730044       0.86534784      -1.70227866
N        1.34888848      -0.34931693      -1.60880179
C        2.14218581      -0.38684525      -0.53219553
C        3.15684774      -1.33385511      -0.31386687
N        3.69688779      -1.11548958       0.89467515
N        3.24386937       0.08814977       1.38124996
C        2.15734222       0.50026213       0.62000175
O        1.42343354       1.42364390       0.96260635
N        3.51224811      -2.34108685      -1.12035424
O       -3.06494981      -1.05921907       0.82781672
C       -4.23545015      -0.36123478       1.24451084
O       -4.22066768       0.97911733       0.79462943
H        4.65399245      -1.36627559       1.16328158
H        3.25049146       0.17736319       2.39477096
H       -0.85573673       2.96490673      -1.62652402
H       -3.09368880       3.17983444      -0.50944563
H       -0.56251435      -1.20260421      -0.43601173
H        3.04799347      -2.46944026      -1.96595199
H        4.26370473      -2.94308489      -0.86475277
H       -5.12408005      -0.87339462       0.82982700
H       -4.30065091      -0.36852304       2.35220977
27
Properties=species:S:1:pos:R:3 pbc="F F F"
C       -1.32386383       2.10252045      -1.10732636
C       -2.54919102       2.24238649      -0.49099370
C       -3.07005136       1.10935152       0.15555100
C       -2.35202006      -0.12974381       0.16744636
C       -1.14536641      -0.22411958      -0.42946074
C       -0.60562585       0.88989698      -1.08004961
N        0.60695203       0.86713946      -1.70345334
N        1.34843472      -0.34995704      -1.60929297
C        2.14199352      -0.38605604      -0.53189587
C        3.15666099      -1.33341173      -0.31356412
N        3.69696064      -1.11558063       0.89479222
N        3.24366494       0.08840694       1.38117934
C        2.15733118       0.50018964       0.61996246
O        1.42298678       1.42325418       0.96222546
N        3.51207905      -2.34084218      -1.11993014
O       -3.06478478      -1.05890033       0.82799035
C       -4.23539018      -0.36121000       1.24465821
O       -4.22041411       0.97887385       0.79506904
H        4.65355016      -1.36558805       1.16342460
H        3.25009528       0.17648880       2.39470057
H       -0.85624456       2.96409137      -1.62588289
H       -3.09319122       3.17914667      -0.50919970
H       -0.56278212      -1.20181780      -0.43637462
H        3.04795355      -2.47019870      -1.96627972
H        4.26368470      -2.94305242      -0.86457009
H       -5.12321755      -0.87277597       0.82981472
H       -4.30020450      -0.36849206       2.35145955
27
Properties=species:S:1:pos:R:3 pbc="F F F"
C       -1.32379422       2.10228366      -1.10709559
C       -2.54903816       2.24187729      -0.49071658
C       -3.07000554       1.10930696       0.15570589
C       -2.35176018      -0.12979913       0.16753192
C       -1.14510979      -0.22442642      -0.42969192
C       -0.60509117       0.88956703      -1.08007223
N        0.60662640       0.86883557      -1.70456142
N        1.34799447      -0.35056036      -1.60975374
C        2.14183216      -0.38529395      -0.53158968
C        3.15647890      -1.33298211      -0.31327203
N        3.69698094      -1.11563896       0.89491998
N        3.24346697       0.08866781       1.38110196
C        2.15731820       0.50012600       0.61993470
O        1.42251156       1.42284738       0.96180257
N        3.51190573      -2.34057180      -1.11948139
O       -3.06459215      -1.05855727       0.82815460
C       -4.23531048      -0.36118261       1.24479179
O       -4.22011285       0.97862670       0.79548786
H        4.65310415      -1.36490220       1.16355536
H        3.24970944       0.17560563       2.39461728
H       -0.85672895       2.96328315      -1.62526775
H       -3.09269568       3.17848226      -0.50895857
H       -0.56306617      -1.20106460      -0.43672087
H        3.04790237      -2.47088692      -1.96655555
H        4.26366221      -2.94301024      -0.86437927
H       -5.12239095      -0.87215744       0.82980547
H       -4.29979721      -0.36847541       2.35070723
27
Properties=species:S:1:pos:R:3 pbc="F F F"
C       -1.32372743       2.10206487      -1.10687278
C       -2.54889309       2.24136683      -0.49045114
C       -3.06996201       1.10926136       0.15585588
C       -2.35151288      -0.12986133       0.16761734
C       -1.14484708      -0.22478228      -0.42992860
C       -0.60456339       0.88922685      -1.08010389
N        0.60632445       0.87044504      -1.70560502
N        1.34756621      -0.35113081      -1.61018814
C        2.14170021      -0.38455477      -0.53127672
C        3.15630237      -1.33256403      -0.31298915
N        3.69695520      -1.11566920       0.89505477
N        3.24327723       0.08893215       1.38101764
C        2.15730436       0.50007174       0.61991733
O        1.42200890       1.42242766       0.96134069
N        3.51173305      -2.34027631      -1.11901010
O       -3.06437397      -1.05818885       0.82831332
C       -4.23521325      -0.36115148       1.24491341
O       -4.21976365       0.97837822       0.79588686
H        4.65265391      -1.36421261       1.16367674
H        3.24933425       0.17471597       2.39452219
H       -0.85719178       2.96248434      -1.62467461
H       -3.09219996       3.17784446      -0.50872194
H       -0.56336143      -1.20034122      -0.43705419
H        3.04782742      -2.47151056      -1.96680772
H        4.26364480      -2.94296792      -0.86418602
H       -5.12159721      -0.87153757       0.82979846
H       -4.29942520      -0.36847057       2.34995538
27
Properties=species:S:1:pos:R:3 pbc="F F F"
C       -1.32366156       2.10185192      -1.10665384
C       -2.54875434       2.24085650      -0.49019645
C       -3.06992041       1.10921624       0.15600195
C       -2.35128209      -0.12992719       0.16770459
C       -1.14458007      -0.22519401      -0.43016844
C       -0.60404316       0.88887717      -1.08014270
N        0.60604550       0.87197522      -1.70658593
N        1.34714787      -0.35167217      -1.61059934
C        2.14159573      -0.38383573      -0.53095690
C        3.15613136      -1.33215614      -0.31271423
N        3.69688820      -1.11567494       0.89519422
N        3.24309607       0.08919977       1.38092684
C        2.15728973       0.50002696       0.61990950
O        1.42147894       1.42199874       0.96084306
N        3.51156433      -2.33995680      -1.11851816
O       -3.06413230      -1.05779193       0.82846839
C       -4.23510115      -0.36111588       1.24502447
O       -4.21936672       0.97813042       0.79626624
H        4.65219801      -1.36351498       1.16379137
H        3.24896987       0.17382140       2.39441634
H       -0.85763562       2.96169576      -1.62409993
H       -3.09170365       3.17723538      -0.50848935
H       -0.56366725      -1.19964495      -0.43737584
H        3.04773048      -2.47208165      -1.96705186
H        4.26363271      -2.94292693      -0.86399310
H       -5.12083470      -0.87091592       0.82979302
H       -4.29908577      -0.36847626       2.34920607
27
Properties=species:S:1:pos:R:3 pbc="F F F"
C       -1.32359521       2.10164151      -1.10643796
C       -2.54862102       2.24034705      -0.48995194
C       -3.06988046       1.10917272       0.15614440
C       -2.35107118      -0.12999389       0.16779485
C       -1.14430778      -0.22567453      -0.43040970
C       -0.60353145       0.88851836      -1.08018727
N        0.60578832       0.87343225      -1.70750604
N        1.34673763      -0.35218793      -1.61098995
C        2.14151694      -0.38313518      -0.53063061
C        3.15596571      -1.33175769      -0.31244659
N        3.69678359      -1.11565866       0.89533658
N        3.24292348       0.08947024       1.38083000
C        2.15727406       0.49999153       0.61991028
O        1.42092215       1.42156418       0.96031315
N        3.51140226      -2.33961472      -1.11800769
O       -3.06386885      -1.05736330       0.82862024
C       -4.23497637      -0.36107543       1.24512564
O       -4.21892232       0.97788519       0.79662517
H        4.65173498      -1.36280593       1.16390126
H        3.24861653       0.17292302       2.39430028
H       -0.85806287       2.96091729      -1.62354078
H       -3.09120682       3.17665634      -0.50826066
H       -0.56398391      -1.19897369      -0.43768669
H        3.04761552      -2.47260723      -1.96729360
H        4.26362547      -2.94288694      -0.86380139
H       -5.12010208      -0.87029272       0.82978823
H       -4.29877635      -0.36849184       2.34846077
27
Properties=species:S:1:pos:R:3 pbc="F F F"
C       -1.32352825       2.10143284      -1.10622486
C       -2.54849270       2.23983911      -0.48971715
C       -3.06984225       1.10913236       0.15628288
C       -2.35088296      -0.13005877       0.16788898
C       -1.14402046      -0.22624073      -0.43065357
C       -0.60302967       0.88815076      -1.08023640
N        0.60555111       0.87482147      -1.70836708
N        1.34633380      -0.35268104      -1.61136191
C        2.14146211      -0.38245220      -0.53029843
C        3.15580503      -1.33136822      -0.31218578
N        3.69664405      -1.11562212       0.89548052
N        3.24275915       0.08974314       1.38072766
C        2.15725681       0.49996539       0.61991891
O        1.42033932       1.42112780       0.95975504
N        3.51124897      -2.33925161      -1.11748074
O       -3.06358567      -1.05690039       0.82876870
C       -4.23484139      -0.36102997       1.24521747
O       -4.21843124       0.97764461       0.79696257
H        4.65126329      -1.36208261       1.16400813
H        3.24827434       0.17202176       2.39417446
H       -0.85847597       2.96014852      -1.62299450
H       -3.09070999       3.17610834      -0.50803574
H       -0.56431199      -1.19832566      -0.43798760
H        3.04748540      -2.47309036      -1.96753464
H        4.26362245      -2.94284727      -0.86361096
H       -5.11939850      -0.86966840       0.82978317
H       -4.29849477      -0.36851675       2.34772089
27
Properties=species:S:1:pos:R:3 pbc="F F F"
C       -1.32346139       2.10122546      -1.10601423
C       -2.54836943       2.23933273      -0.48949147
C       -3.06980684       1.10909879       0.15641551
C       -2.35071987      -0.13011988       0.16798773
C       -1.14369800      -0.22689927      -0.43090671
C       -0.60253957       0.88777421      -1.08028874
N        0.60533152       0.87614712      -1.70917054
N        1.34593465      -0.35315451      -1.61171643
C        2.14142930      -0.38178686      -0.52996085
C        3.15564864      -1.33098791      -0.31193122
N        3.69647142      -1.11556713       0.89562514
N        3.24260235       0.09001762       1.38062048
C        2.15723712       0.49994798       0.61993505
O        1.41973141       1.42069320       0.95917363
N        3.51110592      -2.33886950      -1.11693903
O       -3.06328555      -1.05640158       0.82891331
C       -4.23469883      -0.36097990       1.24530058
O       -4.21789496       0.97741024       0.79727772
H        4.65078123      -1.36134307       1.16411373
H        3.24794294       0.17111799       2.39403941
H       -0.85887756       2.95938827      -1.62245836
H       -3.09021415       3.17559156      -0.50781428
H       -0.56465231      -1.19769993      -0.43827930
H        3.04734175      -2.47353253      -1.96777503
H        4.26362285      -2.94280765      -0.86342139
H       -5.11872349      -0.86904420       0.82977723
H       -4.29823915      -0.36855125       2.34698807
27
Properties=species:S:1:pos:R:3 pbc="F F F"
C       -1.32339485       2.10101803      -1.10580590
C       -2.54825060       2.23882674      -0.48927438
C       -3.06978863       1.10908954       0.15654065
C       -2.35058295      -0.13017680       0.16809162
C       -1.14332692      -0.22763611      -0.43117594
C       -0.60206212       0.88738718      -1.08034301
N        0.60512797       0.87741154      -1.70991794
N        1.34553960      -0.35361232      -1.61205436
C        2.14141755      -0.38114092      -0.52961851
C        3.15549682      -1.33061843      -0.31168246
N        3.69626807      -1.11549663       0.89576968
N        3.24245315       0.09029164       1.38050904
C        2.15721522       0.49993732       0.61995846
O        1.41910081       1.42026284       0.95857430
N        3.51097534      -2.33847186      -1.11638419
O       -3.06297115      -1.05586660       0.82905319
C       -4.23455045      -0.36092700       1.24537559
O       -4.21731491       0.97718230       0.79757025
H        4.65028823      -1.36058706       1.16421958
H        3.24762282       0.17021070       2.39389566
H       -0.85926931       2.95863401      -1.62192988
H       -3.08971967       3.17510481      -0.50759603
H       -0.56500482      -1.19709743      -0.43856271
H        3.04718654      -2.47393558      -1.96801444
H        4.26362696      -2.94276927      -0.86323223
H       -5.11807582      -0.86842315       0.82976992
H       -4.29800689      -0.36859747       2.34626405
27
Properties=species:S:1:pos:R:3 pbc="F F F"
C       -1.32332827       2.10081023      -1.10560078
C       -2.54813497       2.23832118      -0.48906659
C       -3.06979757       1.10908758       0.15668052
C       -2.35047195      -0.13022819       0.16819980
C       -1.14290987      -0.22843149      -0.43146321
C       -0.60159768       0.88698927      -1.08039903
N        0.60493932       0.87861779      -1.71061197
N        1.34514871      -0.35405683      -1.61237732
C        2.14142627      -0.38051512      -0.52927328
C        3.15535015      -1.33026016      -0.31144021
N        3.69603639      -1.11541215       0.89591227
N        3.24231192       0.09056452       1.38039250
C        2.15719185       0.49993253       0.61998787
O        1.41845073       1.41984043       0.95796166
N        3.51085951      -2.33806083      -1.11581885
O       -3.06264512      -1.05529380       0.82918595
C       -4.23439708      -0.36087180       1.24544186
O       -4.21669259       0.97696207       0.79783891
H        4.64978404      -1.35981333       1.16432588
H        3.24731462       0.16929990       2.39374232
H       -0.85965213       2.95788419      -1.62140781
H       -3.08922639       3.17464781      -0.50738191
H       -0.56536886      -1.19651827      -0.43884006
H        3.04702169      -2.47429946      -1.96825342
H        4.26363540      -2.94273196      -0.86304409
H       -5.11745343      -0.86780736       0.82975961
H       -4.29779471      -0.36865676       2.34554937
27
Properties=species:S:1:pos:R:3 pbc="F F F"
C       -1.32326335       2.10060530      -1.10540196
C       -2.54802410       2.23782458      -0.48887089
C       -3.06981250       1.10908249       0.15682265
C       -2.35038784      -0.13027234       0.16831043
C       -1.14246402      -0.22925877      -0.43176094
C       -0.60115471       0.88658729      -1.08045460
N        0.60476622       0.87975042      -1.71124436
N        1.34476759      -0.35448294      -1.61268065
C        2.14145299      -0.37991987      -0.52893178
C        3.15521045      -1.32991894      -0.31120791
N        3.69578234      -1.11531686       0.89604994
N        3.24218003       0.09083135       1.38027307
C        2.15716725       0.49993275       0.62002246
O        1.41779516       1.41943627       0.95735206
N        3.51076092      -2.33764559      -1.11525407
O       -3.06231711      -1.05469262       0.82930838
C       -4.23424281      -0.36081572       1.24549896
O       -4.21604263       0.97675414       0.79808014
H        4.64927626      -1.35903426       1.16443188
H        3.24702251       0.16840084       2.39358228
H       -0.86002156       2.95714979      -1.62089852
H       -3.08874324       3.17422685      -0.50717513
H       -0.56573823      -1.19597144      -0.43910820
H        3.04685093      -2.47461884      -1.96848720
H        4.26364754      -2.94269600      -0.86285957
H       -5.11686476      -0.86720891       0.82974625
H       -4.29760334      -0.36872898       2.34485726
27
Properties=species:S:1:pos:R:3 pbc="F F F"
C       -1.32319798       2.10039604      -1.10520285
C       -2.54791357       2.23732036      -0.48868070
C       -3.06983086       1.10907488       0.15696846
C       -2.35032729      -0.13031014       0.16842711
C       -1.14198086      -0.23014080      -0.43207722
C       -0.60071889       0.88616727      -1.08051077
N        0.60460160       0.88084940      -1.71183777
N        1.34438340      -0.35490675      -1.61297493
C        2.14149795      -0.37933618      -0.52858354
C        3.15507346      -1.32958387      -0.31097768
N        3.69549896      -1.11520895       0.89618653
N        3.24205324       0.09110067       1.38014645
C        2.15714117       0.49993718       0.62006321
O        1.41711523       1.41904026       0.95673051
N        3.51067833      -2.33721426      -1.11467220
O       -3.06197953      -1.05404154       0.82942314
C       -4.23408324      -0.36075751       1.24554896
O       -4.21534550       0.97655268       0.79830188
H        4.64874736      -1.35822264       1.16454201
H        3.24673691       0.16748259       2.39340971
H       -0.86039092       2.95640478      -1.62038323
H       -3.08825436       3.17382777      -0.50696883
H       -0.56612520      -1.19543921      -0.43937804
H        3.04666979      -2.47490352      -1.96872317
H        4.26366453      -2.94266031      -0.86267227
H       -5.11628925      -0.86660997       0.82972900
H       -4.29742449      -0.36881823       2.34416623
27
Properties=species:S:1:pos:R:3 pbc="F F F"
C       -1.32313315       2.10018561      -1.10500688
C       -2.54780424       2.23681712      -0.48849930
C       -3.06985128       1.10906521       0.15711446
C       -2.35029017      -0.13034056       0.16854764
C       -1.14147304      -0.23105975      -0.43240513
C       -0.60029789       0.88573605      -1.08056576
N        0.60444696       0.88189788      -1.71238360
N        1.34400250      -0.35532247      -1.61325536
C        2.14155933      -0.37877462      -0.52823553
C        3.15494152      -1.32926085      -0.31075340
N        3.69519227      -1.11509140       0.89631883
N        3.24193353       0.09136768       1.38001411
C        2.15711439       0.49994507       0.62010908
O        1.41642574       1.41866241       0.95611294
N        3.51061465      -2.33677581      -1.11408431
O       -3.06164130      -1.05335055       0.82952673
C       -4.23392116      -0.36069866       1.24559092
O       -4.21461527       0.97636215       0.79850029
H        4.64820537      -1.35739117       1.16465488
H        3.24646238       0.16655984       2.39322653
H       -0.86075453       2.95566029      -1.61986901
H       -3.08776800       3.17345690      -0.50676660
H       -0.56652285      -1.19493089      -0.43964711
H        3.04648233      -2.47514725      -1.96895654
H        4.26368636      -2.94262509      -0.86248516
H       -5.11573537      -0.86602269       0.82970775
H       -4.29725911      -0.36892445       2.34348953
27
Properties=species:S:1:pos:R:3 pbc="F F F"
C       -1.32306884       2.09997393      -1.10481416
C       -2.54769531       2.23631537      -0.48832672
C       -3.06987345       1.10905378       0.15726024
C       -2.35027492      -0.13036354       0.16867167
C       -1.14094424      -0.23201283      -0.43274328
C       -0.59989176       0.88529389      -1.08061891
N        0.60430093       0.88289823      -1.71288431
N        1.34362490      -0.35573124      -1.61352246
C        2.14163582      -0.37823536      -0.52788885
C        3.15481482      -1.32894991      -0.31053500
N        3.69486436      -1.11496562       0.89644618
N        3.24182088       0.09163229       1.37987552
C        2.15708740       0.49995590       0.62015971
O        1.41573048       1.41830576       0.95550489
N        3.51057125      -2.33633227      -1.11349187
O       -3.06130614      -1.05261964       0.82961789
C       -4.23375696      -0.36063959       1.24562501
O       -4.21385584       0.97618344       0.79867596
H        4.64765010      -1.35653971       1.16477086
H        3.24619873       0.16563184       2.39303194
H       -0.86111293       2.95491542      -1.61935462
H       -3.08728445       3.17311370      -0.50656858
H       -0.56693059      -1.19444649      -0.43991768
H        3.04628999      -2.47534944      -1.96918651
H        4.26371359      -2.94259008      -0.86229817
H       -5.11520218      -0.86544896       0.82968240
H       -4.29710562      -0.36904886       2.34282885
27
Properties=species:S:1:pos:R:3 pbc="F F F"
C       -1.32300503       2.09976094      -1.10462473
C       -2.54758604       2.23581570      -0.48816296
C       -3.06989726       1.10904086       0.15740560
C       -2.35027982      -0.13037925       0.16879896
C       -1.14039715      -0.23299763      -0.43309054
C       -0.59950042       0.88484115      -1.08066964
N        0.60416228       0.88385272      -1.71334249
N        1.34325052      -0.35613393      -1.61377674
C        2.14172598      -0.37771819      -0.52754454
C        3.15469342      -1.32865092      -0.31032238
N        3.69451734      -1.11483296       0.89656802
N        3.24171523       0.09189448       1.37973007
C        2.15706057       0.49996930       0.62021473
O        1.41503310       1.41797299       0.95491158
N        3.51054922      -2.33588550      -1.11289626
O       -3.06097779      -1.05184880       0.82969550
C       -4.23359092      -0.36058059       1.24565140
O       -4.21307135       0.97601722       0.79882975
H        4.64708127      -1.35566835       1.16489015
H        3.24594566       0.16469753       2.39282485
H       -0.86146650       2.95416935      -1.61883891
H       -3.08680393       3.17279751      -0.50637488
H       -0.56734771      -1.19398592      -0.44019213
H        3.04609432      -2.47550959      -1.96941207
H        4.26374667      -2.94255490      -0.86211121
H       -5.11468881      -0.86489056       0.82965301
H       -4.29696283      -0.36919265       2.34218586
27
Properties=species:S:1:pos:R:3 pbc="F F F"
C       -1.32294166       2.09954659      -1.10443855
C       -2.54747573       2.23531879      -0.48800804
C       -3.06992272       1.10902677       0.15755047
C       -2.35030307      -0.13038800       0.16892931
C       -1.13983384      -0.23401204      -0.43344601
C       -0.59912362       0.88437829      -1.08071744
N        0.60402989       0.88476362      -1.71376100
N        1.34287922      -0.35653116      -1.61401878
C        2.14182826      -0.37722255      -0.52720343
C        3.15457729      -1.32836359      -0.31011537
N        3.69415327      -1.11469468       0.89668401
N        3.24161654       0.09215423       1.37957712
C        2.15703426       0.49998503       0.62027369
O        1.41433691       1.41766627       0.95433773
N        3.51054947      -2.33543724      -1.11229865
O       -3.06065987      -1.05103797       0.82975880
C       -4.23342322      -0.36052187       1.24567033
O       -4.21226588       0.97586386       0.79896271
H        4.64649845      -1.35477744       1.16501286
H        3.24570293       0.16375536       2.39260388
H       -0.86181548       2.95342135      -1.61832082
H       -3.08632651       3.17250764      -0.50618562
H       -0.56777353      -1.19354895      -0.44047292
H        3.04589701      -2.47562735      -1.96963201
H        4.26378602      -2.94251905      -0.86192414
H       -5.11419447      -0.86434897       0.82961974
H       -4.29682991      -0.36935695       2.34156213
27
Properties=species:S:1:pos:R:3 pbc="F F F"
C       -1.32287864       2.09933068      -1.10425544
C       -2.54736359       2.23482523      -0.48786191
C       -3.06994976       1.10901176       0.15769487
C       -2.35034279      -0.13039016       0.16906262
C       -1.13925591      -0.23505423      -0.43380887
C       -0.59876101       0.88390580      -1.08076181
N        0.60390282       0.88563316      -1.71414286
N        1.34251066      -0.35692334      -1.61424912
C        2.14194103      -0.37674730      -0.52686612
C        3.15446615      -1.32808739      -0.30991372
N        3.69377388      -1.11455182       0.89679393
N        3.24152469       0.09241150       1.37941592
C        2.15700863       0.50000290       0.62033602
O        1.41364485       1.41738703       0.95378749
N        3.51057258      -2.33498898      -1.11170000
O       -3.06035564      -1.05018698       0.82980734
C       -4.23325375      -0.36046353       1.24568196
O       -4.21144307       0.97572338       0.79907600
H        4.64590076      -1.35386738       1.16513888
H        3.24547020       0.16280324       2.39236711
H       -0.86215993       2.95267061      -1.61779930
H       -3.08585204       3.17224328      -0.50600089
H       -0.56820728      -1.19313515      -0.44076250
H        3.04569976      -2.47570243      -1.96984475
H        4.26383174      -2.94248179      -0.86173671
H       -5.11371819      -0.86382539       0.82958281
H       -4.29670614      -0.36954272       2.34095908
27
Properties=species:S:1:pos:R:3 pbc="F F F"
C       -1.32281601       2.09911314      -1.10407525
C       -2.54724915       2.23433584      -0.48772455
C       -3.06997866       1.10899624       0.15783887
C       -2.35039739      -0.13038607       0.16919885
C       -1.13866485      -0.23612266      -0.43417840
C       -0.59841227       0.88342433      -1.08080243
N        0.60378035       0.88646360      -1.71449153
N        1.34214456      -0.35731074      -1.61446853
C        2.14206307      -0.37629033      -0.52653281
C        3.15435992      -1.32782180      -0.30971712
N        3.69338099      -1.11440537       0.89689782
N        3.24143996       0.09266619       1.37924587
C        2.15698404       0.50002286       0.62040100
O        1.41295973       1.41713603       0.95326442
N        3.51061931      -2.33454234      -1.11110122
O       -3.06006841      -1.04929592       0.82984106
C       -4.23308271      -0.36040568       1.24568661
O       -4.21060668       0.97559570       0.79917090
H        4.64528747      -1.35293879       1.16526816
H        3.24524760       0.16183858       2.39211239
H       -0.86249984       2.95191664      -1.61727358
H       -3.08538063       3.17200399      -0.50582085
H       -0.56864822      -1.19274415      -0.44106333
H        3.04550480      -2.47573499      -1.97004855
H        4.26388424      -2.94244256      -0.86154867
H       -5.11325963      -0.86332092       0.82954253
H       -4.29659159      -0.36975083       2.34037832
27
Properties=species:S:1:pos:R:3 pbc="F F F"
C       -1.32275379       2.09889387      -1.10389769
C       -2.54713192       2.23385141      -0.48759585
C       -3.07000959       1.10898064       0.15798261
C       -2.35046527      -0.13037598       0.16933802
C       -1.13806196      -0.23721596      -0.43455390
C       -0.59807705       0.88293468      -1.08083894
N        0.60366193       0.88725731      -1.71481065
N        1.34178050      -0.35769348      -1.61467778
C        2.14219295      -0.37585028      -0.52620396
C        3.15425837      -1.32756605      -0.30952517
N        3.69297616      -1.11425604       0.89699600
N        3.24136284       0.09291812       1.37906637
C        2.15696069       0.50004499       0.62046783
O        1.41228407       1.41691328       0.95277144
N        3.51069024      -2.33409872      -1.11050296
O       -3.05980109      -1.04836504       0.82986018
C       -4.23291016      -0.36034833       1.24568465
O       -4.20975998       0.97548073       0.79924874
H        4.64465727      -1.35199210       1.16540059
H        3.24503537       0.16085815       2.39183695
H       -0.86283511       2.95115899      -1.61674285
H       -3.08491226       3.17178942      -0.50564567
H       -0.56909560      -1.19237532      -0.44137776
H        3.04531458      -2.47572542      -1.97024138
H        4.26394377      -2.94240061      -0.86135959
H       -5.11281845      -0.86283637       0.82949929
H       -4.29648654      -0.36998189       2.33982148
27
Properties=species:S:1:pos:R:3 pbc="F F F"
C       -1.32269206       2.09867275      -1.10372242
C       -2.54701150       2.23337276      -0.48747564
C       -3.07004280       1.10896548       0.15812630
C       -2.35054493      -0.13036004       0.16948020
C       -1.13744851      -0.23833293      -0.43493462
C       -0.59775501       0.88243777      -1.08087103
N        0.60354717       0.88801675      -1.71510412
N        1.34141798      -0.35807157      -1.61487770
C        2.14232926      -0.37542585      -0.52588009
C        3.15416125      -1.32731923      -0.30933739
N        3.69256083      -1.11410431       0.89708906
N        3.24129416       0.09316702       1.37887686
C        2.15693877       0.50006947       0.62053564
O        1.41162010       1.41671815       0.95231078
N        3.51078595      -2.33365941      -1.10990567
O       -3.05955624      -1.04739478       0.82986522
C       -4.23273616      -0.36029145       1.24567652
O       -4.20890589       0.97537850       0.79931085
H        4.64400849      -1.35102757       1.16553604
H        3.24483397       0.15985801       2.39153728
H       -0.86316555       2.95039730      -1.61620644
H       -3.08444689       3.17159935      -0.50547557
H       -0.56954876      -1.19202788      -0.44170798
H        3.04513192      -2.47567448      -1.97042093
H        4.26401062      -2.94235512      -0.86116891
H       -5.11239450      -0.86237238       0.82945357
H       -4.29639168      -0.37023631       2.33929022
27
Properties=species:S:1:pos:R:3 pbc="F F F"
C       -1.32263098       2.09844968      -1.10354902
C       -2.54688754       2.23290069      -0.48736375
C       -3.07007860       1.10895134       0.15827020
C       -2.35063488      -0.13033835       0.16962547
C       -1.13682592      -0.23947244      -0.43531975
C       -0.59744593       0.88193466      -1.08089847
N        0.60343579       0.88874438      -1.71537601
N        1.34105652      -0.35844496      -1.61506921
C        2.14247069      -0.37501566      -0.52556165
C        3.15406829      -1.32708027      -0.30915322
N        3.69213661      -1.11395047       0.89717794
N        3.24123530       0.09341243       1.37867682
C        2.15691837       0.50009664       0.62060355
O        1.41096972       1.41654957       0.95188403
N        3.51090693      -2.33322548      -1.10930952
O       -3.05933605      -1.04638566       0.82985693
C       -4.23256087      -0.36023501       1.24566278
O       -4.20804708       0.97528912       0.79935858
H        4.64333894      -1.35004518       1.16567436
H        3.24464392       0.15883320       2.39120885
H       -0.86349097       2.94963137      -1.61566374
H       -3.08398439       3.17143371      -0.50531082
H       -0.57000720      -1.19170089      -0.44205597
H        3.04496009      -2.47558338      -1.97058470
H        4.26408510      -2.94230519      -0.86097589
H       -5.11198774      -0.86192948       0.82940591
H       -4.29630812      -0.37051437       2.33878628
27
Properties=species:S:1:pos:R:3 pbc="F F F"
C       -1.32257074       2.09822449      -1.10337703
C       -2.54675973       2.23243594      -0.48725994
C       -3.07011726       1.10893880       0.15841463
C       -2.35073356      -0.13031094       0.16977393
C       -1.13619567      -0.24063343      -0.43570838
C       -0.59714967       0.88142646      -1.08092102
N        0.60332754       0.88944260      -1.71563035
N        1.34069563      -0.35881355      -1.61525321
C        2.14261603      -0.37461818      -0.52524905
C        3.15397904      -1.32684790      -0.30897202
N        3.69170534      -1.11379459       0.89726399
N        3.24118819       0.09365370       1.37846578
C        2.15689941       0.50012687       0.62067068
O        1.41033428       1.41640610       0.95149210
N        3.51105346      -2.33279767      -1.10871424
O       -3.05914229      -1.04533808       0.82983618
C       -4.23238438      -0.36017889       1.24564407
O       -4.20718575       0.97521277       0.79939332
H        4.64264553      -1.34904438       1.16581535
H        3.24446571       0.15777763       2.39084575
H       -0.86381117       2.94886105      -1.61511427
H       -3.08352448       3.17129239      -0.50515171
H       -0.57047047      -1.19139327      -0.44242340
H        3.04480268      -2.47545375      -1.97072993
H        4.26416736      -2.94224974      -0.86077953
H       -5.11159793      -0.86150811       0.82935691
H       -4.29623709      -0.37081631       2.33831139
27
Properties=species:S:1:pos:R:3 pbc="F F F"
C       -1.32251172       2.09799712      -1.10320598
C       -2.54662796       2.23197931      -0.48716393
C       -3.07015921       1.10892851       0.15856001
C       -2.35083951      -0.13027778       0.16992576
C       -1.13555948      -0.24181476      -0.43609949
C       -0.59686620       0.88091440      -1.08093854
N        0.60322222       0.89011372      -1.71587114
N        1.34033507      -0.35917709      -1.61543071
C        2.14276422      -0.37423195      -0.52494269
C        3.15389308      -1.32662078      -0.30879308
N        3.69126985      -1.11363676       0.89734892
N        3.24115580       0.09389007       1.37824330
C        2.15688170       0.50016060       0.62073623
O        1.40971460       1.41628620       0.95113529
N        3.51122584      -2.33237637      -1.10811899
O       -3.05897651      -1.04425233       0.82980392
C       -4.23220701      -0.36012296       1.24562118
O       -4.20632402       0.97514973       0.79941644
H        4.64192430      -1.34802391       1.16595868
H        3.24429978       0.15668383       2.39044052
H       -0.86412607       2.94808650      -1.61455774
H       -3.08306695       3.17117549      -0.50499866
H       -0.57093813      -1.19110399      -0.44281158
H        3.04466394      -2.47528802      -1.97085396
H        4.26425766      -2.94218765      -0.86057854
H       -5.11122505      -0.86110874       0.82930737
H       -4.29618023      -0.37114240       2.33786738
27
Properties=species:S:1:pos:R:3 pbc="F F F"
C       -1.32245456       2.09776777      -1.10303546
C       -2.54649256       2.23153183      -0.48707546
C       -3.07020529       1.10892124       0.15870686
C       -2.35095166      -0.13023881       0.17008120
C       -1.13491944      -0.24301509      -0.43649199
C       -0.59659576       0.88039989      -1.08095102
N        0.60311969       0.89075997      -1.71610224
N        1.33997494      -0.35953529      -1.61560293
C        2.14291462      -0.37385560      -0.52464307
C        3.15381019      -1.32639769      -0.30861568
N        3.69083482      -1.11347738       0.89743483
N        3.24114265       0.09412116       1.37800906
C        2.15686506       0.50019830       0.62079953
O        1.40911117       1.41618847       0.95081355
N        3.51142473      -2.33196182      -1.10752216
O       -3.05884026      -1.04312875       0.82976129
C       -4.23202967      -0.36006709       1.24559519
O       -4.20546422       0.97510040       0.79942940
H        4.64117009      -1.34698162       1.16610390
H        3.24414675       0.15554290       2.38998410
H       -0.86443582       2.94730850      -1.61399423
H       -3.08261195       3.17108349      -0.50485211
H       -0.57140968      -1.19083222      -0.44322140
H        3.04454915      -2.47508980      -1.97095445
H        4.26435660      -2.94211796      -0.86037138
H       -5.11086971      -0.86073193       0.82925829
H       -4.29613990      -0.37149287       2.33745639
27
Properties=species:S:1:pos:R:3 pbc="F F F"
C       -1.32239996       2.09753651      -1.10286494
C       -2.54635385       2.23109437      -0.48699412
C       -3.07025608       1.10891766       0.15885573
C       -2.35106887      -0.13019392       0.17024059
C       -1.13427781      -0.24423263      -0.43688453
C       -0.59633867       0.87988434      -1.08095837
N        0.60301967       0.89138325      -1.71632695
N        1.33961550      -0.35988771      -1.61577102
C        2.14306646      -0.37348795      -0.52435074
C        3.15372969      -1.32617734      -0.30843908
N        3.69040644      -1.11331727       0.89752384
N        3.24115451       0.09434759       1.37776233
C        2.15684885       0.50024029       0.62085989
O        1.40852402       1.41611135       0.95052651
N        3.51165061      -2.33155371      -1.10692102
O       -3.05873439      -1.04196769       0.82970940
C       -4.23185299      -0.36001114       1.24556715
O       -4.20460808       0.97506512       0.79943350
H        4.64037498      -1.34591394       1.16624997
H        3.24400659       0.15434450       2.38946533
H       -0.86474066       2.94652786      -1.61342387
H       -3.08215946       3.17101653      -0.50471246
H       -0.57188438      -1.19057714      -0.44365310
H        3.04446412      -2.47486368      -1.97102923
H        4.26446419      -2.94203928      -0.86015601
H       -5.11053219      -0.86037818       0.82921074
H       -4.29611825      -0.37186778       2.33708046
27
Properties=species:S:1:pos:R:3 pbc="F F F"
C       -1.32234891       2.09730369      -1.10269398
C       -2.54621264       2.23066804      -0.48691945
C       -3.07031253       1.10891850       0.15900723
C       -2.35119057      -0.13014296       0.17040436
C       -1.13363729      -0.24546513      -0.43727569
C       -0.59609544       0.87936937      -1.08096062
N        0.60292193       0.89198534      -1.71654826
N        1.33925737      -0.36023398      -1.61593633
C        2.14321935      -0.37312819      -0.52406649
C        3.15365100      -1.32595862      -0.30826264
N        3.68999324      -1.11315808       0.89761844
N        3.24119900       0.09457107       1.37750220
C        2.15683236       0.50028673       0.62091674
O        1.40795326       1.41605346       0.95027384
N        3.51190466      -2.33115176      -1.10631190
O       -3.05865973      -1.04076967       0.82964951
C       -4.23167821      -0.35995502       1.24553839
O       -4.20375770       0.97504434       0.79943007
H        4.63952877      -1.34481605       1.16639538
H        3.24387941       0.15307729       2.38887194
H       -0.86504115       2.94574606      -1.61284717
H       -3.08170985       3.17097501      -0.50458012
H       -0.57236133      -1.19033821      -0.44410641
H        3.04441585      -2.47461565      -1.97107687
H        4.26458069      -2.94195048      -0.85993012
H       -5.11021351      -0.86004808       0.82916605
H       -4.29611804      -0.37226699       2.33674189
27
Properties=species:S:1:pos:R:3 pbc="F F F"
C       -1.32230250       2.09706972      -1.10252220
C       -2.54606991       2.23025401      -0.48685098
C       -3.07037563       1.10892440       0.15916195
C       -2.35131641      -0.13008577       0.17057297
C       -1.13300082      -0.24670995      -0.43766401
C       -0.59586671       0.87885670      -1.08095788
N        0.60282635       0.89256769      -1.71676867
N        1.33890140      -0.36057375      -1.61610037
C        2.14337305      -0.37277593      -0.52379139
C        3.15357346      -1.32574048      -0.30808571
N        3.68960502      -1.11300205       0.89772167
N        3.24128454       0.09479476       1.37722651
C        2.15681470       0.50033752       0.62096954
O        1.40739945       1.41601340       0.95005537
N        3.51218852      -2.33075581      -1.10569059
O       -3.05861679      -1.03953534       0.82958280
C       -4.23150675      -0.35989872       1.24551031
O       -4.20291514       0.97503843       0.79942036
H        4.63861881      -1.34368215       1.16653818
H        3.24376525       0.15173027       2.38819193
H       -0.86533799       2.94496494      -1.61226492
H       -3.08126363       3.17095922      -0.50445542
H       -0.57283950      -1.19011520      -0.44458054
H        3.04441200      -2.47435284      -1.97109624
H        4.26470621      -2.94185059      -0.85969126
H       -5.10991490      -0.85974233       0.82912563
H       -4.29614210      -0.37269014       2.33644294
27
Properties=species:S:1:pos:R:3 pbc="F F F"
C       -1.32226180       2.09683523      -1.10234930
C       -2.54592675       2.22985361      -0.48678820
C       -3.07044644       1.10893601       0.15932045
C       -2.35144590      -0.13002229       0.17074681
C       -1.13237151      -0.24796411      -0.43804804
C       -0.59565298       0.87834826      -1.08095037
N        0.60273317       0.89313143      -1.71699023
N        1.33854878      -0.36090678      -1.61626474
C        2.14352769      -0.37243123      -0.52352671
C        3.15349660      -1.32552194      -0.30790769
N        3.68925186      -1.11285223       0.89783665
N        3.24141747       0.09502280       1.37693054
C        2.15679505       0.50039223       0.62101776
O        1.40686379       1.41598973       0.94987100
N        3.51250444      -2.33036614      -1.10505313
O       -3.05860575      -1.03826550       0.82951037
C       -4.23134024      -0.35984226       1.24548444
O       -4.20208256       0.97504766       0.79940556
H        4.63763094      -1.34250602       1.16667649
H        3.24366467       0.15029438       2.38741608
H       -0.86563196       2.94418682      -1.61167823
H       -3.08082140       3.17096942      -0.50433858
H       -0.57331769      -1.18990819      -0.44507433
H        3.04446069      -2.47408337      -1.97108638
H        4.26484108      -2.94173919      -0.85943719
H       -5.10963801      -0.85946178       0.82909104
H       -4.29619325      -0.37313655       2.33618591
27
Properties=species:S:1:pos:R:3 pbc="F F F"
C       -1.32222717       2.09660093      -1.10217510
C       -2.54578338       2.22946816      -0.48673072
C       -3.07052526       1.10895406       0.15948301
C       -2.35157776      -0.12995217       0.17092595
C       -1.13175191      -0.24922432      -0.43842667
C       -0.59545418       0.87784620      -1.08093844
N        0.60264326       0.89367763      -1.71721445
N        1.33820105      -0.36123252      -1.61643102
C        2.14368382      -0.37209419      -0.52327401
C        3.15342018      -1.32530166      -0.30772806
N        3.68894156      -1.11271281       0.89796399
N        3.24159205       0.09525303       1.37661243
C        2.15677278       0.50045041       0.62106067
O        1.40634804       1.41598105       0.94972009
N        3.51285494      -2.32998299      -1.10439669
O       -3.05862560      -1.03696055       0.82943289
C       -4.23117959      -0.35978537       1.24546207
O       -4.20126096       0.97507235       0.79938650
H        4.63655074      -1.34128161       1.16680877
H        3.24357907       0.14876445       2.38654011
H       -0.86592323       2.94341426      -1.61108841
H       -3.08038294       3.17100563      -0.50422983
H       -0.57379414      -1.18971726      -0.44558668
H        3.04456967      -2.47381500      -1.97104635
H        4.26498581      -2.94161592      -0.85916629
H       -5.10938360      -0.85920687       0.82906367
H       -4.29627326      -0.37360493       2.33597258
27
Properties=species:S:1:pos:R:3 pbc="F F F"
C       -1.32219818       2.09636829      -1.10199981
C       -2.54563921       2.22909961      -0.48667859
C       -3.07061168       1.10897995       0.15964946
C       -2.35171015      -0.12987428       0.17111001
C       -1.13114377      -0.25048676      -0.43879942
C       -0.59526931       0.87735348      -1.08092297
N        0.60255844       0.89420786      -1.71744275
N        1.33786052      -0.36154957      -1.61660115
C        2.14384307      -0.37176452      -0.52303528
C        3.15334517      -1.32507770      -0.30754660
N        3.68867654      -1.11258484       0.89810124
N        3.24178412       0.09546163       1.37627717
C        2.15674823       0.50051211       0.62109716
O        1.40585523       1.41598658       0.94960151
N        3.51324327      -2.32960637      -1.10372055
O       -3.05867416      -1.03562014       0.82935039
C       -4.23102529      -0.35972713       1.24544425
O       -4.20045042       0.97511344       0.79936344
H        4.63536708      -1.34000452       1.16693453
H        3.24351181       0.14714084       2.38556671
H       -0.86621116       2.94265099      -1.61049745
H       -3.07994731       3.17106840      -0.50412959
H       -0.57426629      -1.18954219      -0.44611706
H        3.04474623      -2.47355421      -1.97097562
H        4.26514231      -2.94148065      -0.85887818
H       -5.10915204      -0.85897736       0.82904466
H       -4.29638303      -0.37409295       2.33580447
27
Properties=species:S:1:pos:R:3 pbc="F F F"
C       -1.32217398       2.09613889      -1.10182348
C       -2.54549311       2.22874986      -0.48663180
C       -3.07070508       1.10901527       0.15981967
C       -2.35184095      -0.12978711       0.17129862
C       -1.13054853      -0.25174780      -0.43916605
C       -0.59509706       0.87687317      -1.08090471
N        0.60248070       0.89472360      -1.71767582
N        1.33752938      -0.36185614      -1.61677665
C        2.14400705      -0.37144168      -0.52281231
C        3.15327261      -1.32484785      -0.30736300
N        3.68844930      -1.11245979       0.89824660
N        3.24197112       0.09560653       1.37592188
C        2.15672171       0.50057769       0.62112621
O        1.40538869       1.41600564       0.94951379
N        3.51367214      -2.32923595      -1.10302548
O       -3.05874850      -1.03424331       0.82926267
C       -4.23087739      -0.35966627       1.24543193
O       -4.19965012       0.97517201       0.79933651
H        4.63407187      -1.33867230       1.16705496
H        3.24346722       0.14542886       2.38450556
H       -0.86649489       2.94190082      -1.60990713
H       -3.07951310       3.17115813      -0.50403803
H       -0.57473159      -1.18938281      -0.44666532
H        3.04499560      -2.47330587      -1.97087372
H        4.26531288      -2.94133333      -0.85857301
H       -5.10894334      -0.85877257       0.82903521
H       -4.29652267      -0.37459766       2.33568291
27
Properties=species:S:1:pos:R:3 pbc="F F F"
C       -1.32215418       2.09591358      -1.10164598
C       -2.54534466       2.22841978      -0.48659005
C       -3.07080579       1.10906078       0.15999387
C       -2.35196873      -0.12969014       0.17149173
C       -1.12996813      -0.25300547      -0.43952621
C       -0.59493687       0.87640706      -1.08088409
N        0.60241150       0.89522479      -1.71791352
N        1.33720908      -0.36215129      -1.61695819
C        2.14417637      -0.37112610      -0.52260661
C        3.15320297      -1.32461113      -0.30717673
N        3.68824358      -1.11232070       0.89840115
N        3.24215324       0.09566076       1.37552837
C        2.15669298       0.50064663       0.62114734
O        1.40495104       1.41603679       0.94945544
N        3.51414307      -2.32887205      -1.10231313
O       -3.05884609      -1.03283007       0.82916969
C       -4.23073646      -0.35960235       1.24542621
O       -4.19885975       0.97524821       0.79930610
H        4.63266122      -1.33728688       1.16717332
H        3.24344954       0.14363694       2.38337206
H       -0.86677445       2.94116638      -1.60931874
H       -3.07907974       3.17127432      -0.50395475
H       -0.57518838      -1.18924024      -0.44723143
H        3.04532023      -2.47307458      -1.97074068
H        4.26549975      -2.94117537      -0.85825110
H       -5.10875867      -0.85859286       0.82903673
H       -4.29669267      -0.37511678       2.33560922
27
Properties=species:S:1:pos:R:3 pbc="F F F"
C       -1.32213876       2.09569252      -1.10146743
C       -2.54519388       2.22810941      -0.48655344
C       -3.07091461       1.10911662       0.16017193
C       -2.35209235      -0.12958339       0.17168881
C       -1.12940470      -0.25425894      -0.43988009
C       -0.59478881       0.87595587      -1.08086174
N        0.60235130       0.89571050      -1.71815544
N        1.33690026      -0.36243435      -1.61714599
C        2.14435035      -0.37081855      -0.52241972
C        3.15313615      -1.32436697      -0.30698723
N        3.68804194      -1.11215076       0.89856681
N        3.24234309       0.09560950       1.37508462
C        2.15666114       0.50071800       0.62115973
O        1.40454408       1.41607821       0.94942431
N        3.51465565      -2.32851436      -1.10158584
O       -3.05896443      -1.03138068       0.82907064
C       -4.23060301      -0.35953538       1.24542741
O       -4.19807888       0.97534154       0.79927207
H        4.63113762      -1.33585479       1.16729421
H        3.24346085       0.14177563       2.38218261
H       -0.86705068       2.94044929      -1.60873371
H       -3.07864721       3.17141564      -0.50387956
H       -0.57563548      -1.18911614      -0.44781611
H        3.04571871      -2.47286241      -1.97057689
H        4.26570460      -2.94100852      -0.85791366
H       -5.10859955      -0.85843907       0.82905007
H       -4.29689339      -0.37564844       2.33558366
