18
Properties=species:S:1:pos:R:3 pbc="F F F"
N       -2.43144894       1.03489995       0.37442800
C       -1.30015099       0.87048101      -0.55318701
C       -0.32917199       2.02900910      -0.33757600
C        0.94227499       1.83994102       0.05797500
F        1.73381495       2.89567709       0.21629199
C        1.54679298       0.56989998       0.24648499
C        0.74395299      -0.55036199       0.01135200
N        1.28249705      -1.79330599       0.15881000
N        0.67761302      -2.78751993      -0.22290000
C       -1.40914702      -1.56933105      -0.45174500
O       -2.17850709      -2.35549808      -0.55777901
C       -0.60976601      -0.44356599      -0.32671499
H        2.18962908      -1.86047006       0.60956502
H        1.17837703      -3.64263391       0.00210400
H       -3.26956606       0.60000801       0.01058600
H       -2.25552893       0.68913102       1.31609905
H       -0.72878301       3.02206111      -0.49864200
H        2.59926510       0.47824401       0.46481600
18
Properties=species:S:1:pos:R:3 pbc="F F F"
N       -2.35785183       1.11816522       0.32778621
C       -1.16014126       0.93308322      -0.46096110
C       -0.21553576       2.06054991      -0.36061024
C        1.02148134       1.87701132       0.03384275
F        1.86036482       2.99613702       0.16958038
C        1.61508757       0.63087957       0.22645839
C        0.82924340      -0.50686860      -0.00721451
N        1.42010819      -1.76104828       0.12208506
N        0.78751764      -2.78692853      -0.25745907
C       -1.28745314      -1.52104738      -0.46796255
O       -2.14771238      -2.32306457      -0.65726990
C       -0.51675237      -0.39651287      -0.33844488
H        2.33333664      -1.81789547       0.56151246
H        1.34374921      -3.67805030      -0.03762060
H       -3.22881309       0.75703411      -0.07618482
H       -2.32627827       0.84054812       1.31029460
H       -0.67651284       3.07603072      -0.53549049
H        2.70616213       0.50197678       0.44765829
