18
Properties=species:S:1:pos:R:3 pbc="F F F"
N       -2.56504512       0.96892297       0.06588100
C       -1.15682399       0.81621099      -0.02058800
C       -0.35943300       1.96640396      -0.00238000
C        1.01477802       1.84201503       0.00912300
F        1.75170004       2.95107293      -0.08010800
C        1.67265403       0.62163198       0.11809400
C        0.88289303      -0.53044701      -0.01462200
N        1.40347397      -1.80321002       0.07925400
N        0.73009598      -2.80972290      -0.46460301
C       -1.31526697      -1.60079801      -0.53003299
O       -2.38057995      -1.93750298      -0.14368699
C       -0.51787603      -0.42122701      -0.14745000
H        2.12498808      -1.97288406       0.77520800
H        1.05900502      -3.65783191       0.01031500
H       -3.04926801       0.19729599      -0.42373100
H       -2.82142496       0.87921298       1.05230796
H       -0.84157598       2.92716098      -0.00416400
H        2.74985099       0.59035999       0.24114899
18
Properties=species:S:1:pos:R:3 pbc="F F F"
N       -2.35785183       1.11816522       0.32778621
C       -1.16014126       0.93308322      -0.46096110
C       -0.21553576       2.06054991      -0.36061024
C        1.02148134       1.87701132       0.03384275
F        1.86036482       2.99613702       0.16958038
C        1.61508757       0.63087957       0.22645839
C        0.82924340      -0.50686860      -0.00721451
N        1.42010819      -1.76104828       0.12208506
N        0.78751764      -2.78692853      -0.25745907
C       -1.28745314      -1.52104738      -0.46796255
O       -2.14771238      -2.32306457      -0.65726990
C       -0.51675237      -0.39651287      -0.33844488
H        2.33333664      -1.81789547       0.56151246
H        1.34374921      -3.67805030      -0.03762060
H       -3.22881309       0.75703411      -0.07618482
H       -2.32627827       0.84054812       1.31029460
H       -0.67651284       3.07603072      -0.53549049
H        2.70616213       0.50197678       0.44765829
