18
Properties=species:S:1:pos:R:3 pbc="F F F"
N       -2.36145380       1.11736688       0.33050173
C       -1.15908829       0.93462343      -0.45043365
C       -0.20636483       2.05925827      -0.36039139
C        1.01934530       1.87481073       0.03283560
F        1.85881863       2.98592409       0.16931446
C        1.61147474       0.63549838       0.22431867
C        0.82792349      -0.50737279      -0.00879789
N        1.41925567      -1.76041019       0.12049672
N        0.78434193      -2.78227571      -0.25788468
C       -1.28338918      -1.52045635      -0.46589696
O       -2.14736230      -2.32136021      -0.65921826
C       -0.51614983      -0.39558670      -0.33852456
H        2.33492480      -1.81684601       0.56114778
H        1.34262717      -3.68084984      -0.03865875
H       -3.22680899       0.75963088      -0.07791439
H       -2.32697933       0.84088116       1.30901137
H       -0.67712837       3.07645205      -0.53645907
H        2.70601319       0.50071193       0.44655329
18
Properties=species:S:1:pos:R:3 pbc="F F F"
N       -2.35785183       1.11816522       0.32778621
C       -1.16014126       0.93308322      -0.46096110
C       -0.21553576       2.06054991      -0.36061024
C        1.02148134       1.87701132       0.03384275
F        1.86036482       2.99613702       0.16958038
C        1.61508757       0.63087957       0.22645839
C        0.82924340      -0.50686860      -0.00721451
N        1.42010819      -1.76104828       0.12208506
N        0.78751764      -2.78692853      -0.25745907
C       -1.28745314      -1.52104738      -0.46796255
O       -2.14771238      -2.32306457      -0.65726990
C       -0.51675237      -0.39651287      -0.33844488
H        2.33333664      -1.81789547       0.56151246
H        1.34374921      -3.67805030      -0.03762060
H       -3.22881309       0.75703411      -0.07618482
H       -2.32627827       0.84054812       1.31029460
H       -0.67651284       3.07603072      -0.53549049
H        2.70616213       0.50197678       0.44765829
18
Properties=species:S:1:pos:R:3 pbc="F F F"
N       -2.35647676       1.11990826       0.32569023
C       -1.16120091       0.93254025      -0.46633143
C       -0.22197368       2.06126637      -0.36048499
C        1.02343512       1.87901920       0.03405165
F        1.86007691       3.00014685       0.16977091
C        1.61788593       0.62701716       0.22742469
C        0.83029562      -0.50647622      -0.00641622
N        1.42101873      -1.76127421       0.12274210
N        0.78888432      -2.78872910      -0.25765582
C       -1.29067874      -1.52079948      -0.46971277
O       -2.14692431      -2.32419059      -0.65520317
C       -0.51704636      -0.39705176      -0.33827767
H        2.33214319      -1.81797630       0.56189297
H        1.34508999      -3.67687080      -0.03728168
H       -3.22938398       0.75472281      -0.07370070
H       -2.32563057       0.84014710       1.31075165
H       -0.67634165       3.07601596      -0.53532153
H        2.70682716       0.50258449       0.44806178
18
Properties=species:S:1:pos:R:3 pbc="F F F"
N       -2.35584909       1.12141301       0.32432126
C       -1.16206552       0.93228314      -0.47022837
C       -0.22670182       2.06191434      -0.36017928
C        1.02496322       1.88069010       0.03387849
F        1.85916290       3.00162054       0.17010055
C        1.62019073       0.62399186       0.22774809
C        0.83111395      -0.50606494      -0.00600712
N        1.42172611      -1.76122059       0.12294100
N        0.78969488      -2.78931321      -0.25785407
C       -1.29333564      -1.52016148      -0.47137278
O       -2.14571443      -2.32509759      -0.65309459
C       -0.51701956      -0.39708212      -0.33781736
H        2.33109091      -1.81783237       0.56219224
H        1.34564335      -3.67636411      -0.03721299
H       -3.22927564       0.75269786      -0.07115352
H       -2.32463972       0.83924878       1.31096214
H       -0.67619530       3.07625466      -0.53536796
H        2.70721066       0.50302212       0.44814426
18
Properties=species:S:1:pos:R:3 pbc="F F F"
N       -2.35552107       1.12244269       0.32355006
C       -1.16281955       0.93212741      -0.47358994
C       -0.23029999       2.06258978      -0.35982326
C        1.02609148       1.88203678       0.03353069
F        1.85803414       3.00194805       0.17052160
C        1.62216311       0.62163025       0.22770064
C        0.83172548      -0.50564527      -0.00585387
N        1.42217484      -1.76098329       0.12290160
N        0.79012738      -2.78918167      -0.25799415
C       -1.29556797      -1.51939030      -0.47296960
O       -2.14429385      -2.32595541      -0.65097716
C       -0.51675302      -0.39679888      -0.33721202
H        2.33002092      -1.81762107       0.56244502
H        1.34553194      -3.67588257      -0.03720763
H       -3.22883254       0.75086931      -0.06869146
H       -2.32312572       0.83783867       1.31107676
H       -0.67598997       3.07658084      -0.53547770
H        2.70733438       0.50339467       0.44807042
18
Properties=species:S:1:pos:R:3 pbc="F F F"
N       -2.35530510       1.12301716       0.32322357
C       -1.16350851       0.93201811      -0.47670814
C       -0.23308133       2.06328120      -0.35949791
C        1.02691934       1.88313754       0.03310386
F        1.85686822       3.00169992       0.17096950
C        1.62386476       0.61979583       0.22742624
C        0.83216470      -0.50522620      -0.00588188
N        1.42236634      -1.76061437       0.12274311
N        0.79027112      -2.78853997      -0.25807200
C       -1.29748486      -1.51859274      -0.47450016
O       -2.14273580      -2.32682151      -0.64885623
C       -0.51636692      -0.39635528      -0.33660360
H        2.32887345      -1.81739462       0.56268082
H        1.34487268      -3.67520772      -0.03719000
H       -3.22820468       0.74915423      -0.06630683
H       -2.32104370       0.83598272       1.31116577
H       -0.67571648       3.07693395      -0.53560428
H        2.70724677       0.50373174       0.44790816
18
Properties=species:S:1:pos:R:3 pbc="F F F"
N       -2.35509775       1.12321207       0.32323883
C       -1.16416633       0.93193197      -0.47971581
C       -0.23525658       2.06396255      -0.35924870
C        1.02753320       1.88406390       0.03263979
F        1.85573599       3.00116180       0.17140619
C        1.62532083       0.61837950       0.22700715
C        0.83246456      -0.50480952      -0.00604052
N        1.42231600      -1.76014561       0.12253669
N        0.79018061      -2.78751709      -0.25809481
C       -1.29915696      -1.51780797      -0.47595742
O       -2.14107206      -2.32771061      -0.64673122
C       -0.51593960      -0.39584010      -0.33606618
H        2.32763192      -1.81717194       0.56291674
H        1.34378439      -3.67431144      -0.03713546
H       -3.22746761       0.74749800      -0.06397848
H       -2.31842511       0.83376384       1.31125605
H       -0.67537374       3.07728947      -0.53572613
H        2.70698823       0.50405118       0.44769327
18
Properties=species:S:1:pos:R:3 pbc="F F F"
N       -2.35486020       1.12309080       0.32355900
C       -1.16481267       0.93185705      -0.48267611
C       -0.23697932       2.06461822      -0.35909415
C        1.02799466       1.88486528       0.03215709
F        1.85465927       3.00047605       0.17181271
C        1.62655366       0.61729100       0.22649340
C        0.83265603      -0.50439499      -0.00629580
N        1.42204906      -1.75959794       0.12232328
N        0.78989802      -2.78620905      -0.25807675
C       -1.30062961      -1.51704940      -0.47734062
O       -2.13931872      -2.32861783      -0.64460550
C       -0.51551180      -0.39530097      -0.33563242
H        2.32630267      -1.81695947       0.56315867
H        1.34236644      -3.67321013      -0.03704293
H       -3.22665872       0.74586943      -0.06169872
H       -2.31534499       0.83127177       1.31134747
H       -0.67496060       3.07763546      -0.53583476
H        2.70659683       0.50436471       0.44744615
18
Properties=species:S:1:pos:R:3 pbc="F F F"
N       -2.35458839       1.12269813       0.32413500
C       -1.16545846       0.93178712      -0.48561730
C       -0.23836192       2.06524179      -0.35903190
C        1.02834466       1.88557322       0.03166888
F        1.85364091       2.99971501       0.17218387
C        1.62758965       0.61645946       0.22592097
C        0.83276510      -0.50398246      -0.00662151
N        1.42159456      -1.75898789       0.12212640
N        0.78946445      -2.78469113      -0.25802994
C       -1.30193483      -1.51631925      -0.47865006
O       -2.13748889      -2.32952879      -0.64248349
C       -0.51510428      -0.39476210      -0.33530972
H        2.32489996      -1.81675727       0.56340896
H        1.34069768      -3.67192875      -0.03691929
H       -3.22579526       0.74425004      -0.05946666
H       -2.31189178       0.82858730       1.31143094
H       -0.67447881       3.07796572      -0.53592642
H        2.70610566       0.50467987       0.44718127
18
Properties=species:S:1:pos:R:3 pbc="F F F"
N       -2.35428102       1.12207401       0.32490904
C       -1.16611061       0.93171911      -0.48854969
C       -0.23948605       2.06583204      -0.35904929
C        1.02860956       1.88620747       0.03118649
F        1.85267686       2.99891523       0.17252195
C        1.62845614       0.61583117       0.22531737
C        0.83281159      -0.50357259      -0.00699688
N        1.42097960      -1.75833063       0.12195812
N        0.78891580      -2.78302244      -0.25796290
C       -1.30309579      -1.51561640      -0.47988503
O       -2.13559730      -2.33042650      -0.64037090
C       -0.51472849      -0.39423630      -0.33509338
H        2.32343861      -1.81656244       0.56366833
H        1.33884177      -3.67049417      -0.03677328
H       -3.22488530       0.74262702      -0.05728343
H       -2.30815120       0.82577644       1.31149501
H       -0.67393543       3.07827784      -0.53600058
H        2.70554126       0.50500116       0.44690904
18
Properties=species:S:1:pos:R:3 pbc="F F F"
N       -2.35393919       1.12125495       0.32582929
C       -1.16677371       0.93165107      -0.49147351
C       -0.24041041       2.06639096      -0.35913124
C        1.02880772       1.88678096       0.03071862
F        1.85176130       2.99809324       0.17283169
C        1.62917872       0.61536528       0.22470318
C        0.83281108      -0.50316677      -0.00740583
N        1.42022780      -1.75763906       0.12182333
N        0.78827854      -2.78124245      -0.25788010
C       -1.30412730      -1.51494114      -0.48104431
O       -2.13365931      -2.33129466      -0.63827371
C       -0.51439054      -0.39373153      -0.33497502
H        2.32193299      -1.81637207       0.56393636
H        1.33684815      -3.66893112      -0.03661303
H       -3.22393357       0.74099156      -0.05515199
H       -2.30419865       0.82288871       1.31152770
H       -0.67333840       3.07857112      -0.53605751
H        2.70492479       0.50533093       0.44663607
18
Properties=species:S:1:pos:R:3 pbc="F F F"
N       -2.35356565       1.12027341       0.32685084
C       -1.16745056       0.93158106      -0.49438297
C       -0.24117752       2.06692200      -0.35926309
C        1.02895362       1.88730334       0.03027113
F        1.85088811       2.99725411       0.17311874
C        1.62978017       0.61502997       0.22409374
C        0.83277671      -0.50276659      -0.00783554
N        1.41935918      -1.75692333       0.12172329
N        0.78757080      -2.77937567      -0.25778356
C       -1.30503978      -1.51429539      -0.48212737
O       -2.13169224      -2.33211816      -0.63619873
C       -0.51409320      -0.39325316      -0.33494537
H        2.32039655      -1.81618402       0.56421281
H        1.33475539      -3.66726070      -0.03644448
H       -3.22294389       0.73933872      -0.05307692
H       -2.30009654       0.81995829       1.31151831
H       -0.67269472       3.07884536      -0.53609706
H        2.70427358       0.50567076       0.44636625
18
Properties=species:S:1:pos:R:3 pbc="F F F"
N       -2.35316332       1.11915632       0.32793755
C       -1.16814278       0.93150688      -0.49727044
C       -0.24181870       2.06742902      -0.35943146
C        1.02905953       1.88778261       0.02984770
F        1.85005193       2.99639758       0.17338897
C        1.63028052       0.61479984       0.22350034
C        0.83271947      -0.50237355      -0.00827568
N        1.41839055      -1.75619165       0.12165786
N        0.78680619      -2.77743991      -0.25767484
C       -1.30584382      -1.51368128      -0.48313547
O       -2.12971658      -2.33288217      -0.63415632
C       -0.51383679      -0.39280424      -0.33499437
H        2.31884200      -1.81599696       0.56449830
H        1.33259381      -3.66550003      -0.03627062
H       -3.22191987       0.73766672      -0.05106310
H       -2.29589445       0.81700727       1.31145858
H       -0.67201035       3.07910093      -0.53611888
H        2.70360266       0.50602263       0.44610188
18
Properties=species:S:1:pos:R:3 pbc="F F F"
N       -2.35273409       1.11792599       0.32906089
C       -1.16885191       0.93142577      -0.50013048
C       -0.24235748       2.06791505      -0.35962486
C        1.02913527       1.88822432       0.02945083
F        1.84924802       2.99552082       0.17364794
C        1.63069676       0.61465436       0.22293094
C        0.83264782      -0.50198945      -0.00871818
N        1.41733613      -1.75545092       0.12162652
N        0.78599616      -2.77545023      -0.25755492
C       -1.30654885      -1.51310005      -0.48406959
O       -2.12775219      -2.33357140      -0.63216049
C       -0.51361968      -0.39238570      -0.33511104
H        2.31728077      -1.81581010       0.56479356
H        1.33038477      -3.66366081      -0.03609196
H       -3.22086436       0.73597504      -0.04911335
H       -2.29163105       0.81405123       1.31134299
H       -0.67129051       3.07933767      -0.53612312
H        2.70292442       0.50638842       0.44584432
18
Properties=species:S:1:pos:R:3 pbc="F F F"
N       -2.35227907       1.11660224       0.33019912
C       -1.16958000       0.93133505      -0.50296154
C       -0.24281211       2.06838232      -0.35983406
C        1.02918796       1.88863138       0.02908251
F        1.84847132       2.99462005       0.17390078
C        1.63104330       0.61457717       0.22239051
C        0.83256793      -0.50161639      -0.00915702
N        1.41620891      -1.75470741       0.12162835
N        0.78515180      -2.77342206      -0.25742433
C       -1.30716216      -1.51255127      -0.48492970
O       -2.12581589      -2.33417223      -0.63022632
C       -0.51343926      -0.39199729      -0.33528431
H        2.31572294      -1.81562317       0.56509850
H        1.32814270      -3.66175059      -0.03590812
H       -3.21977988       0.73426351      -0.04722727
H       -2.28733670       0.81110422       1.31116923
H       -0.67054006       3.07955502      -0.53611094
H        2.70224829       0.50676945       0.44559461
18
Properties=species:S:1:pos:R:3 pbc="F F F"
N       -2.35179958       1.11520351       0.33133579
C       -1.17032927       0.93123247      -0.50576453
C       -0.24319692       2.06883264      -0.36005200
C        1.02922280       1.88900533       0.02874416
F        1.84771653       2.99369173       0.17415200
C        1.63133243       0.61455554       0.22188177
C        0.83248433      -0.50125646      -0.00958790
N        1.41502107      -1.75396654       0.12166192
N        0.78428289      -2.77137043      -0.25728342
C       -1.30768903      -1.51203357      -0.48571577
O       -2.12392155      -2.33467484      -0.62836610
C       -0.51329270      -0.39163840      -0.33550428
H        2.31417735      -1.81543651       0.56541228
H        1.32587840      -3.65977534      -0.03571871
H       -3.21866915       0.73253193      -0.04540258
H       -2.28303541       0.80817942       1.31093792
H       -0.66976382       3.07975275      -0.53608429
H        2.70158161       0.50716677       0.44535375
18
Properties=species:S:1:pos:R:3 pbc="F F F"
N       -2.35129815       1.11374767       0.33245653
C       -1.17110166       0.93111624      -0.50853994
C       -0.24352308       2.06926726      -0.36027343
C        1.02924364       1.88934694       0.02843665
F        1.84697824       2.99273228       0.17440547
C        1.63157417       0.61457937       0.22140583
C        0.83240012      -0.50091128      -0.01000786
N        1.41378320      -1.75323196       0.12172555
N        0.78339668      -2.76930763      -0.25713250
C       -1.30813293      -1.51154569      -0.48642844
O       -2.12207904      -2.33507226      -0.62658639
C       -0.51317744      -0.39130858      -0.33576316
H        2.31265101      -1.81525039       0.56573370
H        1.32360139      -3.65774071      -0.03552362
H       -3.21753475       0.73077973      -0.04363715
H       -2.27874478       0.80528717       1.31065114
H       -0.66896661       3.07993037      -0.53604499
H        2.70092999       0.50758146       0.44512261
18
Properties=species:S:1:pos:R:3 pbc="F F F"
N       -2.35077966       1.11225303       0.33354707
C       -1.17189933       0.93098525      -0.51128595
C       -0.24379924       2.06968726      -0.36049438
C        1.02925332       1.88965677       0.02816066
F        1.84625147       2.99173873       0.17466468
C        1.63177674       0.61464083       0.22096308
C        0.83231731      -0.50058193      -0.01041479
N        1.41250429      -1.75250587       0.12181732
N        0.78249820      -2.76724382      -0.25697209
C       -1.30849679      -1.51108687      -0.48706920
O       -2.12029320      -2.33536019      -0.62488674
C       -0.51309154      -0.39100747      -0.33605524
H        2.31114937      -1.81506500       0.56606157
H        1.32132109      -3.65565324      -0.03532313
H       -3.21637944       0.72900585      -0.04193099
H       -2.27447702       0.80243413       1.31031000
H       -0.66815342       3.08008748      -0.53599377
H        2.70029785       0.50801504       0.44490190
18
Properties=species:S:1:pos:R:3 pbc="F F F"
N       -2.35024965       1.11073656       0.33459566
C       -1.17272477       0.93083889      -0.51400023
C       -0.24403214       2.07009381      -0.36071190
C        1.02925409       1.88993558       0.02791663
F        1.84553191       2.99070911       0.17493253
C        1.63194701       0.61473388       0.22055348
C        0.83223721      -0.50026889      -0.01080714
N        1.41119217      -1.75178978       0.12193489
N        0.78159116      -2.76518807      -0.25680332
C       -1.30878447      -1.51065678      -0.48764033
O       -2.11856492      -2.33553590      -0.62326163
C       -0.51303324      -0.39073430      -0.33637580
H        2.30967665      -1.81488033       0.56639506
H        1.31904740      -3.65352102      -0.03511807
H       -3.21520611       0.72720852      -0.04028569
H       -2.27024189       0.79962493       1.30991430
H       -0.66732894       3.08022414      -0.53593056
H        2.69968852       0.50846964       0.44469212
18
Properties=species:S:1:pos:R:3 pbc="F F F"
N       -2.34971329       1.10921238       0.33559449
C       -1.17358041       0.93067689      -0.51668125
C       -0.24422694       2.07048788      -0.36092389
C        1.02924784       1.89018448       0.02770428
F        1.84481568       2.98964203       0.17521143
C        1.63209068       0.61485384       0.22017639
C        0.83216088      -0.49997198      -0.01118392
N        1.40985408      -1.75108483       0.12207552
N        0.78067848      -2.76314893      -0.25662797
C       -1.30900079      -1.51025502      -0.48814473
O       -2.11689338      -2.33559646      -0.62170411
C       -0.51300059      -0.39048753      -0.33672072
H        2.30823614      -1.81469595       0.56673387
H        1.31679047      -3.65135338      -0.03490947
H       -3.21401812       0.72538543      -0.03870247
H       -2.26604783       0.79686298       1.30946414
H       -0.66649710       3.08034054      -0.53585510
H        2.69910420       0.50894762       0.44449349
18
Properties=species:S:1:pos:R:3 pbc="F F F"
N       -2.34917580       1.10769312       0.33653856
C       -1.17446845       0.93049909      -0.51932807
C       -0.24438752       2.07087048      -0.36112889
C        1.02923634       1.89040506       0.02752284
F        1.84409972       2.98853705       0.17550338
C        1.63221260       0.61499712       0.21983093
C        0.83208930      -0.49969063      -0.01154447
N        1.40849725      -1.75039249       0.12223627
N        0.77976239      -2.76113459      -0.25644795
C       -1.30915151      -1.50988102      -0.48858552
O       -2.11527766      -2.33553895      -0.62020751
C       -0.51299146      -0.39026491      -0.33708631
H        2.30683092      -1.81451136       0.56707819
H        1.31455978      -3.64916047      -0.03469833
H       -3.21281938       0.72353382      -0.03718225
H       -2.26190171       0.79415038       1.30896002
H       -0.66566120       3.08043708      -0.53576667
H        2.69854638       0.50945123       0.44430577
18
Properties=species:S:1:pos:R:3 pbc="F F F"
N       -2.34864222       1.10619068       0.33742458
C       -1.17539070       0.93030525      -0.52193994
C       -0.24451677       2.07124244      -0.36132594
C        1.02922125       1.89059920       0.02737115
F        1.84338167       2.98739460       0.17580977
C        1.63231689       0.61516080       0.21951603
C        0.83202330      -0.49942406      -0.01188838
N        1.40712868      -1.74971447       0.12241432
N        0.77884424      -2.75915228      -0.25626488
C       -1.30924290      -1.50953409      -0.48896560
O       -2.11371635      -2.33536120      -0.61876537
C       -0.51300352      -0.39006384      -0.33746915
H        2.30546379      -1.81432599       0.56742835
H        1.31236309      -3.64695178      -0.03448538
H       -3.21161369       0.72165063      -0.03572595
H       -2.25780863       0.79148809       1.30840223
H       -0.66482388       3.08051389      -0.53566399
H        2.69801574       0.50998211       0.44412816
18
Properties=species:S:1:pos:R:3 pbc="F F F"
N       -2.34811754       1.10471679       0.33825053
C       -1.17634854       0.93009508      -0.52451629
C       -0.24461683       2.07160441      -0.36151441
C        1.02920421       1.89076897       0.02724770
F        1.84265998       2.98621622       0.17613113
C        1.63240708       0.61534234       0.21923052
C        0.83196350      -0.49917156      -0.01221548
N        1.40575484      -1.74905239       0.12260721
N        0.77792463      -2.75720811      -0.25607996
C       -1.30928116      -1.50921372      -0.48928730
O       -2.11220736      -2.33506261      -0.61737136
C       -0.51303437      -0.38988174      -0.33786613
H        2.30413724      -1.81413919       0.56778459
H        1.31020605      -3.64473567      -0.03427113
H       -3.21040464       0.71973297      -0.03433465
H       -2.25377254       0.78887676       1.30779080
H       -0.66398695       3.08057057      -0.53554509
H        2.69751237       0.51054087       0.44395932
18
Properties=species:S:1:pos:R:3 pbc="F F F"
N       -2.34760684       1.10328328       0.33901546
C       -1.17734282       0.92986832      -0.52705649
C       -0.24468927       2.07195694      -0.36169389
C        1.02918688       1.89091666       0.02715080
F        1.84193368       2.98500462       0.17646677
C        1.63248627       0.61553947       0.21897312
C        0.83191035      -0.49893245      -0.01252577
N        1.40438162      -1.74840761       0.12281289
N        0.77700438      -2.75530817      -0.25589434
C       -1.30927232      -1.50891984      -0.48955228
O       -2.11074842      -2.33464449      -0.61601916
C       -0.51308170      -0.38971623      -0.33827443
H        2.30285335      -1.81395026       0.56814711
H        1.30809265      -3.64251933      -0.03405595
H       -3.20919552       0.71777852      -0.03300958
H       -2.24979678       0.78631717       1.30712581
H       -0.66315140       3.08060629      -0.53540758
H        2.69703589       0.51112711       0.44379752
18
Properties=species:S:1:pos:R:3 pbc="F F F"
N       -2.34711528       1.10190205       0.33971949
C       -1.17837368       0.92962492      -0.52955971
C       -0.24473528       2.07230066      -0.36186419
C        1.02917104       1.89104487       0.02707862
F        1.84120198       2.98376308       0.17681507
C        1.63255724       0.61575015       0.21874244
C        0.83186424      -0.49870617      -0.01281939
N        1.40301433      -1.74778126       0.12302958
N        0.77608506      -2.75345883      -0.25570908
C       -1.30922231      -1.50865298      -0.48976159
O       -2.10933735      -2.33411005      -0.61470267
C       -0.51314329      -0.38956530      -0.33869164
H        2.30161400      -1.81375865       0.56851598
H        1.30602562      -3.64030881      -0.03384017
H       -3.20798944       0.71578565      -0.03175201
H       -2.24588452       0.78381078       1.30640765
H       -0.66231812       3.08062022      -0.53524926
H        2.69658577       0.51173966       0.44364087
18
Properties=species:S:1:pos:R:3 pbc="F F F"
N       -2.34664782       1.10058465       0.34036359
C       -1.17944025       0.92936496      -0.53202477
C       -0.24475566       2.07263601      -0.36202529
C        1.02915850       1.89115622       0.02702923
F        1.84046442       2.98249527       0.17717369
C        1.63262240       0.61597250       0.21853698
C        0.83182548      -0.49849236      -0.01309672
N        1.40165764      -1.74717402       0.12325574
N        0.77516851      -2.75166558      -0.25552479
C       -1.30913681      -1.50841441      -0.48991572
O       -2.10797204      -2.33346411      -0.61341614
C       -0.51321711      -0.38942759      -0.33911588
H        2.30042058      -1.81356412       0.56889090
H        1.30400600      -3.63810808      -0.03362404
H       -3.20678890       0.71375317      -0.03056300
H       -2.24203850       0.78135965       1.30563724
H       -0.66148755       3.08061128      -0.53506834
H        2.69616111       0.51237656       0.44348731
18
Properties=species:S:1:pos:R:3 pbc="F F F"
N       -2.34621587       1.09936114       0.34094070
C       -1.18052197       0.92909359      -0.53441064
C       -0.24475141       2.07295801      -0.36217509
C        1.02915103       1.89125185       0.02700080
F        1.83973383       2.98122733       0.17753383
C        1.63268285       0.61620077       0.21835774
C        0.83179470      -0.49829414      -0.01335431
N        1.40033757      -1.74659562       0.12348591
N        0.77427182      -2.74996049      -0.25534468
C       -1.30902366      -1.50820944      -0.49001394
O       -2.10667210      -2.33272704      -0.61217502
C       -0.51329982      -0.38930435      -0.33953877
H        2.29929225      -1.81337015       0.56926489
H        1.30206542      -3.63595524      -0.03341129
H       -3.20561565       0.71171548      -0.02946066
H       -2.23832253       0.77900514       1.30483076
H       -0.66067351       3.08057923      -0.53486749
H        2.69576705       0.51302393       0.44333726
18
Properties=species:S:1:pos:R:3 pbc="F F F"
N       -2.34580944       1.09820047       0.34147179
C       -1.18165392       0.92880207      -0.53679635
C       -0.24472241       2.07327799      -0.36231910
C        1.02915010       1.89133730       0.02699075
F        1.83898712       2.97992117       0.17790565
C        1.63274245       0.61644149       0.21819731
C        0.83177119      -0.49810523      -0.01360157
N        1.39901303      -1.74602689       0.12372659
N        0.77336700      -2.74829039      -0.25516269
C       -1.30888407      -1.50803511      -0.49005845
O       -2.10539388      -2.33187909      -0.61093332
C       -0.51339319      -0.38919164      -0.33997444
H        2.29819214      -1.81317053       0.56965021
H        1.30013812      -3.63377851      -0.03319467
H       -3.20443218       0.70960269      -0.02840873
H       -2.23461323       0.77667122       1.30396268
H       -0.65984827       3.08052181      -0.53463924
H        2.69538944       0.51370119       0.44318355
18
Properties=species:S:1:pos:R:3 pbc="F F F"
N       -2.34543888       1.09713028       0.34194993
C       -1.18281522       0.92849622      -0.53914046
C       -0.24466913       2.07359096      -0.36245562
C        1.02915710       1.89141312       0.02699764
F        1.83823935       2.97860371       0.17828147
C        1.63280154       0.61668958       0.21805683
C        0.83175544      -0.49792920      -0.01383530
N        1.39770882      -1.74547755       0.12397241
N        0.77247236      -2.74668737      -0.25498186
C       -1.30872557      -1.50789907      -0.49004720
O       -2.10416018      -2.33093952      -0.60970847
C       -0.51349520      -0.38909182      -0.34041618
H        2.29713912      -1.81296848       0.57004013
H        1.29825685      -3.63161505      -0.03297749
H       -3.20326003       0.70745005      -0.02742510
H       -2.23097431       0.77440111       1.30305013
H       -0.65902515       3.08043880      -0.53438742
H        2.69503310       0.51439424       0.44302656
18
Properties=species:S:1:pos:R:3 pbc="F F F"
N       -2.34510621       1.09615443       0.34237819
C       -1.18400334       0.92817808      -0.54144248
C       -0.24459208       2.07389784      -0.36258577
C        1.02917304       1.89148136       0.02701956
F        1.83749370       2.97728025       0.17866053
C        1.63286141       0.61694424       0.21793433
C        0.83174741      -0.49776614      -0.01405690
N        1.39642629      -1.74494764       0.12422202
N        0.77159188      -2.74515491      -0.25480224
C       -1.30855407      -1.50780598      -0.48997986
O       -2.10297278      -2.32991499      -0.60849785
C       -0.51360600      -0.38900523      -0.34086524
H        2.29613248      -1.81276365       0.57043458
H        1.29642258      -3.62946612      -0.03275918
H       -3.20210104       0.70525935      -0.02650826
H       -2.22740605       0.77219864       1.30209759
H       -0.65820339       3.08033014      -0.53411308
H        2.69469617       0.51510033       0.44286404
18
Properties=species:S:1:pos:R:3 pbc="F F F"
N       -2.34481213       1.09527351       0.34275964
C       -1.18521556       0.92785049      -0.54370228
C       -0.24449158       2.07419980      -0.36271100
C        1.02919867       1.89154381       0.02705469
F        1.83675282       2.97595500       0.17904284
C        1.63292327       0.61720505       0.21782778
C        0.83174698      -0.49761593      -0.01426793
N        1.39516550      -1.74443730       0.12447419
N        0.77072998      -2.74369613      -0.25462399
C       -1.30837553      -1.50776067      -0.48985610
O       -2.10183376      -2.32881190      -0.60729969
C       -0.51372635      -0.38893212      -0.34132353
H        2.29517065      -1.81255520       0.57083371
H        1.29463705      -3.62733310      -0.03253887
H       -3.20095677       0.70303332      -0.02565596
H       -2.22390808       0.77006786       1.30111062
H       -0.65738174       3.08019613      -0.53381774
H        2.69437659       0.51581738       0.44269363
18
Properties=species:S:1:pos:R:3 pbc="F F F"
N       -2.34455590       1.09448512       0.34309730
C       -1.18644896       0.92751696      -0.54592029
C       -0.24436772       2.07449835      -0.36283295
C        1.02923466       1.89160210       0.02710127
F        1.83601837       2.97463066       0.17942888
C        1.63298847       0.61747198       0.21773525
C        0.83175417      -0.49747810      -0.01447005
N        1.39392533      -1.74394662       0.12472779
N        0.76989088      -2.74231363      -0.25444745
C       -1.30819622      -1.50776788      -0.48967558
O       -2.10074481      -2.32763665      -0.60611296
C       -0.51385747      -0.38887258      -0.34179347
H        2.29425120      -1.81234197       0.57123780
H        1.29290210      -3.62521699      -0.03231556
H       -3.19982825       0.70077514      -0.02486543
H       -2.22047958       0.76801270       1.30009583
H       -0.65655861       3.08003744      -0.53350329
H        2.69407233       0.51654396       0.44251290
18
Properties=species:S:1:pos:R:3 pbc="F F F"
N       -2.34433525       1.09378459       0.34339412
C       -1.18770028       0.92718149      -0.54809729
C       -0.24422037       2.07479517      -0.36295334
C        1.02928171       1.89165779       0.02715778
F        1.83529091       2.97330837       0.17981919
C        1.63305845       0.61774519       0.21765486
C        0.83176911      -0.49735189      -0.01466488
N        1.39270382      -1.74347554       0.12498195
N        0.76907855      -2.74100932      -0.25427311
C       -1.30802310      -1.50783180      -0.48943813
O       -2.09970687      -2.32639573      -0.60493735
C       -0.51400075      -0.38882648      -0.34227777
H        2.29337081      -1.81212261       0.57164719
H        1.29121909      -3.62311806      -0.03208810
H       -3.19871562       0.69848829      -0.02413351
H       -2.21711926       0.76603672       1.29906087
H       -0.65573245       3.07985495      -0.53317199
H        2.69378152       0.51727888       0.44231952
18
Properties=species:S:1:pos:R:3 pbc="F F F"
N       -2.34414686       1.09316591       0.34365324
C       -1.18896619       0.92684850      -0.55023435
C       -0.24404954       2.07509242      -0.36307391
C        1.02934065       1.89171268       0.02722296
F        1.83457049       2.97198852       0.18021414
C        1.63313487       0.61802508       0.21758490
C        0.83179214      -0.49723637      -0.01485393
N        1.39149876      -1.74302404       0.12523603
N        0.76829744      -2.73978524      -0.25410164
C       -1.30786432      -1.50795615      -0.48914421
O       -2.09872030      -2.32509627      -0.60377336
C       -0.51415773      -0.38879350      -0.34277925
H        2.29252587      -1.81189605       0.57206232
H        1.28958886      -3.62103645      -0.03185539
H       -3.19761875       0.69617662      -0.02345700
H       -2.21382613       0.76414301       1.29801452
H       -0.65490210       3.07965023      -0.53282654
H        2.69350283       0.51802112       0.44211148
18
Properties=species:S:1:pos:R:3 pbc="F F F"
N       -2.34398644       1.09262192       0.34387809
C       -1.19024355       0.92652258      -0.55233279
C       -0.24385560       2.07539254      -0.36319626
C        1.02941229       1.89176857       0.02729579
F        1.83385666       2.97067074       0.18061386
C        1.63321938       0.61831212       0.21752383
C        0.83182369      -0.49713049      -0.01503857
N        1.39030773      -1.74259197       0.12548958
N        0.76755360      -2.73864320      -0.25393358
C       -1.30772897      -1.50814396      -0.48879517
O       -2.09778479      -2.32374583      -0.60262209
C       -0.51433013      -0.38877310      -0.34330064
H        2.29171233      -1.81166119       0.57248363
H        1.28801148      -3.61897178      -0.03161640
H       -3.19653703       0.69384404      -0.02283284
H       -2.21059921       0.76233379       1.29696635
H       -0.65406642       3.07942522      -0.53246982
H        2.69323496       0.51876999       0.44188702
18
Properties=species:S:1:pos:R:3 pbc="F F F"
N       -2.34384907       1.09214456       0.34407254
C       -1.19152951       0.92620834      -0.55439419
C       -0.24363938       2.07569824      -0.36332191
C        1.02949727       1.89182726       0.02737550
F        1.83314888       2.96935437       0.18101835
C        1.63331361       0.61860684       0.21747029
C        0.83186416      -0.49703310      -0.01521995
N        1.38912825      -1.74217919       0.12574238
N        0.76685544      -2.73758488      -0.25376904
C       -1.30762771      -1.50839725      -0.48839357
O       -2.09689961      -2.32235244      -0.60148507
C       -0.51451985      -0.38876448      -0.34384449
H        2.29092593      -1.81141699       0.57291151
H        1.28648631      -3.61692360      -0.03137024
H       -3.19546954       0.69149422      -0.02225821
H       -2.20743765       0.76061031       1.29592637
H       -0.65322417       3.07918239      -0.53210488
H        2.69297664       0.51952540       0.44164461
18
Properties=species:S:1:pos:R:3 pbc="F F F"
N       -2.34372932       1.09172513       0.34424074
C       -1.19282151       0.92591023      -0.55642031
C       -0.24340226       2.07601251      -0.36345219
C        1.02959610       1.89189059       0.02746151
F        1.83244677       2.96803881       0.18142750
C        1.63341914       0.61890974       0.21742322
C        0.83191400      -0.49694308      -0.01539898
N        1.38795821      -1.74178582       0.12599439
N        0.76621438      -2.73661281      -0.25360765
C       -1.30757442      -1.50871527      -0.48794386
O       -2.09606384      -2.32092447      -0.60036406
C       -0.51472891      -0.38876672      -0.34441306
H        2.29016227      -1.81116241       0.57334643
H        1.28501215      -3.61489162      -0.03111618
H       -3.19441489       0.68913023      -0.02173061
H       -2.20434026       0.75897269       1.29490484
H       -0.65237417       3.07892479      -0.53173482
H        2.69272655       0.52028749       0.44138307
18
Properties=species:S:1:pos:R:3 pbc="F F F"
N       -2.34362112       1.09135477       0.34438682
C       -1.19411713       0.92563232      -0.55841292
C       -0.24314610       2.07633844      -0.36358817
C        1.02970909       1.89196039       0.02755350
F        1.83175025       2.96672370       0.18184114
C        1.63353739       0.61922112       0.21738198
C        0.83197363      -0.49685942      -0.01557611
N        1.38679613      -1.74141257       0.12624579
N        0.76564480      -2.73573115      -0.25344894
C       -1.30758772      -1.50909229      -0.48745297
O       -2.09527648      -2.31947011      -0.59926058
C       -0.51495913      -0.38877880      -0.34500821
H        2.28941677      -1.81089636       0.57378907
H        1.28358729      -3.61287583      -0.03085356
H       -3.19337065       0.68675393      -0.02124783
H       -2.20130475       0.75741971       1.29391192
H       -0.65151549       3.07865588      -0.53136266
H        2.69248321       0.52105628       0.44110173
18
Properties=species:S:1:pos:R:3 pbc="F F F"
N       -2.34351793       1.09102493       0.34451471
C       -1.19541394       0.92537814      -0.56037391
C       -0.24287318       2.07667930      -0.36373071
C        1.02983641       1.89203851       0.02765132
F        1.83105971       2.96540899       0.18225916
C        1.63366978       0.61954108       0.21734639
C        0.83204358      -0.49678145      -0.01575141
N        1.38564110      -1.74106092       0.12649707
N        0.76516062      -2.73494470      -0.25329282
C       -1.30768970      -1.50951751      -0.48693005
O       -2.09453652      -2.31799724      -0.59817579
C       -0.51521203      -0.38879976      -0.34563140
H        2.28868499      -1.81061797       0.57424041
H        1.28221002      -3.61087713      -0.03058173
H       -3.19233330       0.68436552      -0.02080792
H       -2.19832740       0.75594893       1.29295752
H       -0.65064735       3.07837961      -0.53099126
H        2.69224515       0.52183166       0.44080042
18
Properties=species:S:1:pos:R:3 pbc="F F F"
N       -2.34341329       1.09072794       0.34462800
C       -1.19670956       0.92515070      -0.56230521
C       -0.24258615       2.07703864      -0.36388063
C        1.02997817       1.89212680       0.02775494
F        1.83037617       2.96409511       0.18268141
C        1.63381784       0.61986952       0.21731668
C        0.83212456      -0.49670890      -0.01592457
N        1.38449267      -1.74073310       0.12674901
N        0.76477294      -2.73425806      -0.25313971
C       -1.30790235      -1.50997742      -0.48638519
O       -2.09384321      -2.31651366      -0.59711059
C       -0.51548870      -0.38882872      -0.34628386
H        2.28796278      -1.81032663       0.57470169
H        1.28087883      -3.60889740      -0.03030010
H       -3.19129891       0.68196387      -0.02040918
H       -2.19540381       0.75455705       1.29205132
H       -0.64976900       3.07810054      -0.53062350
H        2.69201102       0.52261372       0.44047948
18
Properties=species:S:1:pos:R:3 pbc="F F F"
N       -2.34330121       1.09045748       0.34472969
C       -1.19800155       0.92495222      -0.56420853
C       -0.24228778       2.07741979      -0.36403874
C        1.03013403       1.89222664       0.02786417
F        1.82970078       2.96278212       0.18310756
C        1.63398280       0.62020612       0.21729330
C        0.83221715      -0.49664158      -0.01609507
N        1.38335048      -1.74043131       0.12700257
N        0.76448985      -2.73367450      -0.25299031
C       -1.30824381      -1.51045845      -0.48582774
O       -2.09319531      -2.31502695      -0.59606563
C       -0.51578967      -0.38886489      -0.34696663
H        2.28724574      -1.81002178       0.57517398
H        1.27959176      -3.60693804      -0.03000832
H       -3.19026367       0.67954689      -0.02005002
H       -2.19252944       0.75324012       1.29120246
H       -0.64887921       3.07782317      -0.53026215
H        2.69177907       0.52340295       0.44013940
18
Properties=species:S:1:pos:R:3 pbc="F F F"
N       -2.34317743       1.09020945       0.34482226
C       -1.19928773       0.92478427      -0.56608548
C       -0.24198091       2.07782627      -0.36420611
C        1.03030349       1.89233928       0.02797865
F        1.82903518       2.96147026       0.18353706
C        1.63416598       0.62055048       0.21727689
C        0.83232201      -0.49657939      -0.01626227
N        1.38221465      -1.74015793       0.12725885
N        0.76431649      -2.73319632      -0.25284538
C       -1.30872702      -1.51094933      -0.48526569
O       -2.09259108      -2.31354508      -0.59504142
C       -0.51611486      -0.38890766      -0.34768070
H        2.28652973      -1.80970338       0.57565822
H        1.27834650      -3.60500034      -0.02970660
H       -3.18922577       0.67711250      -0.01972874
H       -2.18970084       0.75199394       1.29041971
H       -0.64797613       3.07755241      -0.52991008
H        2.69154773       0.52420059       0.43978083
18
Properties=species:S:1:pos:R:3 pbc="F F F"
N       -2.34303957       1.08998171       0.34490776
C       -1.20056602       0.92464770      -0.56793749
C       -0.24166831       2.07826147      -0.36438411
C        1.03048567       1.89246556       0.02809773
F        1.82838111       2.96015958       0.18396911
C        1.63436853       0.62090220       0.21726819
C        0.83243978      -0.49652236      -0.01642549
N        1.38108587      -1.73991531       0.12751916
N        0.76425518      -2.73282456      -0.25270551
C       -1.30935952      -1.51144156      -0.48470554
O       -2.09202790      -2.31207570      -0.59403831
C       -0.51646337      -0.38895655      -0.34842696
H        2.28581087      -1.80937188       0.57615521
H        1.27714024      -3.60308540      -0.02939573
H       -3.18818525       0.67465891      -0.01944355
H       -2.18691535       0.75081422       1.28971116
H       -0.64705733       3.07729328      -0.52957013
H        2.69131537       0.52500868       0.43940452
18
Properties=species:S:1:pos:R:3 pbc="F F F"
N       -2.34288699       1.08977385       0.34498793
C       -1.20183445       0.92454267      -0.56976611
C       -0.24135292       2.07872879      -0.36457445
C        1.03067912       1.89260619       0.02822052
F        1.82774017       2.95885024       0.18440266
C        1.63459123       0.62126094       0.21726805
C        0.83257098      -0.49647091      -0.01658419
N        1.37996510      -1.73970590       0.12778487
N        0.76430663      -2.73255919      -0.25257071
C       -1.31014390      -1.51192957      -0.48415235
O       -2.09150290      -2.31062565      -0.59305628
C       -0.51683386      -0.38901105      -0.34920618
H        2.28508541      -1.80902824       0.57666586
H        1.27596956      -3.60119430      -0.02907701
H       -3.18714292       0.67218428      -0.01919275
H       -2.18417017       0.74969657       1.28908371
H       -0.64612025       3.07705108      -0.52924503
H        2.69108017       0.52583020       0.43901147
18
Properties=species:S:1:pos:R:3 pbc="F F F"
N       -2.34272014       1.08958636       0.34506415
C       -1.20309112       0.92446849      -0.57157323
C       -0.24103788       2.07923118      -0.36477921
C        1.03088161       1.89276148       0.02834596
F        1.82711330       2.95754205       0.18483655
C        1.63483399       0.62162647       0.21727741
C        0.83271562      -0.49642555      -0.01673785
N        1.37885297      -1.73953170       0.12805743
N        0.76447133      -2.73239843      -0.25243963
C       -1.31107805      -1.51241036      -0.48360979
O       -2.09101303      -2.30920040      -0.59209472
C       -0.51722487      -0.38907047      -0.35001904
H        2.28434919      -1.80867347       0.57719109
H        1.27482987      -3.59932751      -0.02875209
H       -3.18609874       0.66968596      -0.01897511
H       -2.18146104       0.74863624       1.28854244
H       -0.64516254       3.07683066      -0.52893723
H        2.69083954       0.52666901       0.43860288
18
Properties=species:S:1:pos:R:3 pbc="F F F"
N       -2.34254076       1.08942059       0.34513770
C       -1.20433428       0.92442381      -0.57336098
C       -0.24072639       2.07977132      -0.36500079
C        1.03109051       1.89293178       0.02847288
F        1.82650127       2.95623534       0.18526965
C        1.63509620       0.62199876       0.21729731
C        0.83287321      -0.49638675      -0.01688605
N        1.37774977      -1.73939414       0.12833831
N        0.76474877      -2.73233950      -0.25231061
C       -1.31215556      -1.51288371      -0.48308024
O       -2.09055562      -2.30780488      -0.59115253
C       -0.51763498      -0.38913406      -0.35086600
H        2.28359822      -1.80830880       0.57773165
H        1.27371573      -3.59748514      -0.02842284
H       -3.18505173       0.66716099      -0.01878976
H       -2.17878272       0.74762835       1.28809073
H       -0.64418236       3.07663657      -0.52864879
H        2.69059072       0.52752947       0.43818036
18
Properties=species:S:1:pos:R:3 pbc="F F F"
N       -2.34235136       1.08927833       0.34521007
C       -1.20556200       0.92440667      -0.57513134
C       -0.24042112       2.08035122      -0.36524179
C        1.03130326       1.89311733       0.02860015
F        1.82590480       2.95493058       0.18570116
C        1.63537701       0.62237794       0.21732899
C        0.83304299      -0.49635457      -0.01702830
N        1.37665554      -1.73929329       0.12862906
N        0.76513378      -2.73237956      -0.25218451
C       -1.31336624      -1.51335157      -0.48256472
O       -2.09012763      -2.30644372      -0.59022804
C       -0.51806238      -0.38920108      -0.35174720
H        2.28282856      -1.80793532       0.57828818
H        1.27262053      -3.59566582      -0.02809120
H       -3.18399964       0.66460659      -0.01863579
H       -2.17612903       0.74666799       1.28773049
H       -0.64317813       3.07647225      -0.52838108
H        2.69033104       0.52841603       0.43774587
18
Properties=species:S:1:pos:R:3 pbc="F F F"
N       -2.34215532       1.08916151       0.34528331
C       -1.20677210       0.92441456      -0.57688610
C       -0.24012405       2.08097229      -0.36550508
C        1.03151772       1.89331842       0.02872665
F        1.82532494       2.95362870       0.18613060
C        1.63567569       0.62276437       0.21737378
C        0.83322428      -0.49632880      -0.01716429
N        1.37557050      -1.73922827       0.12893127
N        0.76561635      -2.73251550      -0.25206456
C       -1.31469727      -1.51381787      -0.48206313
O       -2.08972556      -2.30512137      -0.58931932
C       -0.51850468      -0.38927090      -0.35266235
H        2.28203698      -1.80755456       0.57886115
H        1.27153659      -3.59386716      -0.02775919
H       -3.18293976       0.66202115      -0.01851197
H       -2.17349394       0.74575031       1.28746258
H       -0.64214875       3.07633995      -0.52813494
H        2.69005839       0.52933317       0.43730161
18
Properties=species:S:1:pos:R:3 pbc="F F F"
N       -2.34195652       1.08907162       0.34536018
C       -1.20796202       0.92444441      -0.57862704
C       -0.23983650       2.08163500      -0.36579393
C        1.03173202       1.89353510       0.02885107
F        1.82476262       2.95233069       0.18655769
C        1.63599143       0.62315855       0.21743286
C        0.83341658      -0.49630926      -0.01729389
N        1.37449534      -1.73919762       0.12924652
N        0.76618281      -2.73274274      -0.25195499
C       -1.31613423      -1.51428739      -0.48157463
O       -2.08934498      -2.30384149      -0.58842425
C       -0.51895874      -0.38934293      -0.35361074
H        2.28122096      -1.80716889       0.57945070
H        1.27045506      -3.59208600      -0.02742897
H       -3.18186921       0.65940450      -0.01841653
H       -2.17087189       0.74487047       1.28728716
H       -0.64109351       3.07624033      -0.52791080
H        2.68977077       0.53028567       0.43684960
